Backward Displacement
1.00000000000000
  17.0343360900000000    0.0000000000000000    0.0000000000000000
  -8.5171680450000000   14.7521677905999997    0.0000000000000000
   0.0000000000000000    0.0000000000000000   31.2940731049000007
In    As    H
92    64    16
Cartesian
  -2.3438935986545637    5.2085952215352185   31.1623666792269098
  -6.6024776211545637   12.5846791168352183   31.1623666792269098
   6.1732744463454363    5.2085952215352185   31.1623666792269098
   1.9146904238454363   12.5846791168352183   31.1623666792269098
   3.0450987941800367    6.4253481464581350   31.1630885150277273
  -1.2134852283199633   13.8014320417581349   31.1630885150277273
  11.5622668391800367    6.4253481464581350   31.1630885150277273
   7.3036828166800367   13.8014320417581349   31.1630885150277273
   3.5549638083582993    3.1097018968270311   31.1628584060125284
  -0.7036202141417007   10.4857857921270305   31.1628584060125284
  12.0721318533583002    3.1097018968270311   31.1628584060125284
   7.8135478308582993   10.4857857921270305   31.1628584060125284
   1.1193719872827996    0.9230589531996495   31.1568871666961194
  -3.1392120352172004    8.2991428484996490   31.1568871666961194
   9.6365400322827988    0.9230589531996495   31.1568871666961194
   5.3779560097827996    8.2991428484996490   31.1568871666961194
   0.7655614569055817    4.1921603558841056   31.1371793704755042
  -3.4930225655944183   11.5682442511841046   31.1571793704755038
   9.2827295019055818    4.1921603558841056   31.1571793704755038
   5.0241454794055818   11.5682442511841046   31.1571793704755038
  -0.0009116663274167    7.3741067550926447   31.1972898865247608
  -4.2594956888274167   14.7501906503926445   31.1972898865247608
   8.5162563786725833    7.3741067550926447   31.1972898865247608
   4.2576723561725833   14.7501906503926445   31.1972898865247608
   6.6291689050378722    2.2513168981416771   31.1575924608473755
   2.3705848825378721    9.6274007934416765   31.1575924608473755
  15.1463369500378722    2.2513168981416771   31.1575924608473755
  10.8877529275378713    9.6274007934416765   31.1575924608473755
   0.0053730819112174    4.8984748627526127    3.4722381955627806
  -4.2532109405887830   12.2745587580526134    3.4722381955627806
   8.5225411269112179    4.8984748627526127    3.4722381955627806
   4.2639571044112170   12.2745587580526134    3.4722381955627806
   6.4013421435133049    1.2430557640842390    3.4721049979863077
   2.1427581210133049    8.6191396593842384    3.4721049979863077
  14.9185101885133058    1.2430557640842390    3.4721049979863077
  10.6599261660133049    8.6191396593842384    3.4721049979863077
   4.2586051172153772    4.9170660223793217    3.4417280265304027
   0.0000210947153771   12.2931499176793224    3.4417280265304027
  12.7757731622153763    4.9170660223793217    3.4417280265304027
   8.5171891397153772   12.2931499176793224    3.4417280265304027
   2.1103352997407270    1.2337388893815069    3.4722865014412796
  -2.1482487227592730    8.6098227846815067    3.4722865014412796
  10.6275033447407274    1.2337388893815069    3.4722865014412796
   6.3689193222407265    8.6098227846815067    3.4722865014412796
   4.2585840225000000    2.4586946956927500    6.9542384295073285
   0.0000000000000000    9.8347785909927499    6.9542384295073285
  12.7757520675000009    2.4586946956927500    6.9542384295073285
   8.5171680450000000    9.8347785909927499    6.9542384295073285
  -2.1292924839528200    6.1467366212144698    6.9542384295073285
  -6.3878765064528196   13.5228205165144697    6.9542384295073285
   6.3878755610471796    6.1467366212144698    6.9542384295073285
   2.1292915385471800   13.5228205165144697    6.9542384295073285
  -0.0000004769614199    2.4586949317274009    6.9542384295073285
  -4.2585844994614197    9.8347788270274012    6.9542384295073285
   8.5171675680385803    2.4586949317274009    6.9542384295073285
   4.2585835455385803    9.8347788270274012    6.9542384295073285
   2.1292920155085695    6.1467366212144698    6.9542384295073285
  -2.1292920069914305   13.5228205165144697    6.9542384295073285
  10.6464600605085700    6.1467366212144698    6.9542384295073285
   6.3878760380085691   13.5228205165144697    6.9542384295073285
   0.0000000000000000    0.0000000000000000   10.4313583483774170
  -4.2585840225000000    7.3760838952999999   10.4313583483774170
   8.5171680450000000    0.0000000000000000   10.4313583483774170
   4.2585840225000000    7.3760838952999999   10.4313583483774170
   2.1292920069913994    3.6880419255217727   10.4313583483774170
  -2.1292920155086006   11.0641258208217721   10.4313583483774170
  10.6464600519913990    3.6880419255217727   10.4313583483774170
   6.3878760294913999   11.0641258208217721   10.4313583483774170
   4.2585840225000000    0.0000000000000000   10.4313583483774170
   0.0000000000000000    7.3760838952999999   10.4313583483774170
  12.7757520675000009    0.0000000000000000   10.4313583483774170
   8.5171680450000000    7.3760838952999999   10.4313583483774170
   6.3878760294913999    3.6880419255217727   10.4313583483774170
   2.1292920069913999   11.0641258208217721   10.4313583483774170
  14.9050440744913999    3.6880419255217727   10.4313583483774170
  10.6464600519914008   11.0641258208217721   10.4313583483774170
   0.0000000000000302    4.9173893913854476   13.9084768277204684
  -4.2585840224999698   12.2934732866854475   13.9084768277204684
   8.5171680450000302    4.9173893913854476   13.9084768277204684
   4.2585840225000302   12.2934732866854475   13.9084768277204684
   6.3878760380085993    1.2293473478463746   13.9084768277204684
   2.1292920155085993    8.6054312431463735   13.9084768277204684
  14.9050440830085993    1.2293473478463746   13.9084768277204684
  10.6464600605085984    8.6054312431463735   13.9084768277204684
   4.2585840225000293    4.9173893913854476   13.9084768277204684
   0.0000000000000293   12.2934732866854475   13.9084768277204684
  12.7757520675000293    4.9173893913854476   13.9084768277204684
   8.5171680450000302   12.2934732866854475   13.9084768277204684
   2.1292920155085997    1.2293473478463746   13.9084768277204684
  -2.1292920069914003    8.6054312431463735   13.9084768277204684
  10.6464600605086002    1.2293473478463746   13.9084768277204684
   6.3878760380085993    8.6054312431463735   13.9084768277204684
   8.4985368369118337    0.0018160725751726    2.4148057800761391
   4.2399528144118337    7.3778999678751722    2.4148057800761391
  17.0157048819118337    0.0018160725751726    2.4148057800761391
  12.7571208594118346    7.3778999678751722    2.4148057800761391
  -2.1181092650034099    3.7028653084882821    2.4147538454522750
  -6.3766932875034099   11.0789492037882820    2.4147538454522750
   6.3990587799965901    3.7028653084882821    2.4147538454522750
   2.1404747574965901   11.0789492037882820    2.4147538454522750
  -0.0000801362272993    7.3758044129621236    2.5806326769739947
  -4.2586641587272993   14.7518883082621244    2.5806326769739947
   8.5170879087727016    7.3758044129621236    2.5806326769739947
   4.2585038862727007   14.7518883082621244    2.5806326769739947
   2.1367026770727584    3.6704901163852499    2.4148275328523630
  -2.1218813454272416   11.0465740116852498    2.4148275328523630
  10.6538707220727584    3.6704901163852499    2.4148275328523630
   6.3952866995727584   11.0465740116852498    2.4148275328523630
   0.0020898770378226    4.9115054389507993    6.0840094979387427
  -4.2564941454621774   12.2875893342508000    6.0840094979387427
   8.5192579220378235    4.9115054389507993    6.0840094979387427
   4.2606738995378226   12.2875893342508000    6.0840094979387427
   2.1231806841168392    1.2304479749271413    6.0840439902921677
  -2.1354033383831608    8.6065318702271405    6.0840439902921677
  10.6403487291168393    1.2304479749271413    6.0840439902921677
   6.3817647066168393    8.6065318702271405    6.0840439902921677
   4.2585715549451120    4.9173705327729955    6.0632626403427743
  -0.0000124675548880   12.2934544280729945    6.0632626403427743
  12.7757395999451120    4.9173705327729955    6.0632626403427743
   8.5171555774451129   12.2934544280729945    6.0632626403427743
   6.3919070266838993    1.2340742107165383    6.0839160218108663
   2.1333230041838993    8.6101581060165380    6.0839160218108663
  14.9090750716838993    1.2340742107165383    6.0839160218108663
  10.6504910491838984    8.6101581060165380    6.0839160218108663
   4.2585840225000000    2.4586946956927500    9.5620775315435083
   0.0000000000000000    9.8347785909927499    9.5620775315435083
  12.7757520675000009    2.4586946956927500    9.5620775315435083
   8.5171680450000000    9.8347785909927499    9.5620775315435083
   2.1292920155085695    6.1467366212144698    9.5620775315435083
  -2.1292920069914305   13.5228205165144697    9.5620775315435083
  10.6464600605085700    6.1467366212144698    9.5620775315435083
   6.3878760380085691   13.5228205165144697    9.5620775315435083
  -0.0000004769614199    2.4586949317274009    9.5620775315435083
  -4.2585844994614197    9.8347788270274012    9.5620775315435083
   8.5171675680385803    2.4586949317274009    9.5620775315435083
   4.2585835455385803    9.8347788270274012    9.5620775315435083
  -2.1292924839528200    6.1467366212144698    9.5620775315435083
  -6.3878765064528196   13.5228205165144697    9.5620775315435083
   6.3878755610471796    6.1467366212144698    9.5620775315435083
   2.1292915385471800   13.5228205165144697    9.5620775315435083
   0.0000000000000000    0.0000000000000000   13.0391969810025721
  -4.2585840225000000    7.3760838952999999   13.0391969810025721
   8.5171680450000000    0.0000000000000000   13.0391969810025721
   4.2585840225000000    7.3760838952999999   13.0391969810025721
   6.3878760294913999    3.6880419255217727   13.0391969810025721
   2.1292920069913999   11.0641258208217721   13.0391969810025721
  14.9050440744913999    3.6880419255217727   13.0391969810025721
  10.6464600519914008   11.0641258208217721   13.0391969810025721
   4.2585840225000000    0.0000000000000000   13.0391969810025721
   0.0000000000000000    7.3760838952999999   13.0391969810025721
  12.7757520675000009    0.0000000000000000   13.0391969810025721
   8.5171680450000000    7.3760838952999999   13.0391969810025721
   2.1292920069913994    3.6880419255217727   13.0391969810025721
  -2.1292920155086006   11.0641258208217721   13.0391969810025721
  10.6464600519913990    3.6880419255217727   13.0391969810025721
   6.3878760294913999   11.0641258208217721   13.0391969810025721
   0.0000000000000302    4.9173893913854476   15.6492528925895549
  -4.2585840224999698   12.2934732866854475   15.6492528925895549
   8.5171680450000302    4.9173893913854476   15.6492528925895549
   4.2585840225000302   12.2934732866854475   15.6492528925895549
   2.1292920155085997    1.2293473478463746   15.6492528925895549
  -2.1292920069914003    8.6054312431463735   15.6492528925895549
  10.6464600605086002    1.2293473478463746   15.6492528925895549
   6.3878760380085993    8.6054312431463735   15.6492528925895549
   4.2585840225000293    4.9173893913854476   15.6492528925895549
   0.0000000000000293   12.2934732866854475   15.6492528925895549
  12.7757520675000293    4.9173893913854476   15.6492528925895549
   8.5171680450000302   12.2934732866854475   15.6492528925895549
   6.3878760380085993    1.2293473478463746   15.6492528925895549
   2.1292920155085993    8.6054312431463735   15.6492528925895549
  14.9050440830085993    1.2293473478463746   15.6492528925895549
  10.6464600605085984    8.6054312431463735   15.6492528925895549
