Backward Displacement
1.00000000000000
  10.2851810455999999    0.0000000000000000    0.0000000000000000
   5.1425905228000000    8.9072280680000002    0.0000000000000000
   0.0000000000000000    0.0000000000000000   27.7901687622000004
Cu
112
Cartesian
   0.0000000000000000    0.0000000000000000    6.2983610850000522
   1.2856476307000000    2.2268070170000001    6.2983610850000522
   2.5712952614000000    4.4536140340000001    6.2983610850000522
   3.8569428921000002    6.6804210509999997    6.2983610850000522
   2.5712952614000000    0.0000000000000000    6.2983610850000522
   3.8569428921000002    2.2268070170000001    6.2983610850000522
   5.1425905228000000    4.4536140340000001    6.2983610850000522
   6.4282381535000006    6.6804210509999997    6.2983610850000522
   5.1425905228000000    0.0000000000000000    6.2983610850000522
   6.4282381534999997    2.2268070170000001    6.2983610850000522
   7.7138857842000004    4.4536140340000001    6.2983610850000522
   8.9995334149000001    6.6804210509999997    6.2983610850000522
   7.7138857842000004    0.0000000000000000    6.2983610850000522
   8.9995334149000001    2.2268070170000001    6.2983610850000522
  10.2851810455999999    4.4536140340000001    6.2983610850000522
  11.5708286762999997    6.6804210509999997    6.2983610850000522
   2.5712951080000064    1.4845379229999942    8.3978147800000702
   3.8569427387000061    3.7113449399999943    8.3978147800000702
   5.1425903694000059    5.9381519569999943    8.3978147800000702
   6.4282380001000066    8.1649589739999939    8.3978147800000702
   5.1425903694000059    1.4845379229999942    8.3978147800000702
   6.4282380001000066    3.7113449399999943    8.3978147800000702
   7.7138856308000063    5.9381519569999943    8.3978147800000702
   8.9995332615000070    8.1649589739999939    8.3978147800000702
   7.7138856308000063    1.4845379229999942    8.3978147800000702
   8.9995332615000052    3.7113449399999943    8.3978147800000702
  10.2851808922000068    5.9381519569999943    8.3978147800000702
  11.5708285229000065    8.1649589739999939    8.3978147800000702
  10.2851808922000068    1.4845379229999942    8.3978147800000702
  11.5708285229000065    3.7113449399999943    8.3978147800000702
  12.8564761536000063    5.9381519569999943    8.3978147800000702
  14.1421237843000061    8.1649589739999939    8.3978147800000702
   1.2856475539999939    0.7422689609999932   10.4987696089513474
   2.5712951846999941    2.9690759779999931   10.4987696089513474
   3.8569428153999938    5.1958829949999936   10.4987696089513474
   5.1425904460999945    7.4226900119999932   10.4987696089513474
   3.8569428153999938    0.7422689609999932   10.4987696089513474
   5.1425904460999945    2.9690759779999931   10.4987696089513474
   6.4282380767999943    5.1958829949999936   10.4987696089513474
   7.7138857074999940    7.4226900119999932   10.4987696089513474
   6.4282380767999943    0.7422689609999932   10.4987696089513474
   7.7138857074999940    2.9690759779999931   10.4987696089513474
   8.9995333381999938    5.1958829949999936   10.4987696089513474
  10.2851809688999936    7.4226900119999932   10.4987696089513474
   8.9995333381999938    0.7422689609999932   10.4987696089513474
  10.2851809688999936    2.9690759779999931   10.4987696089513474
  11.5708285995999933    5.1958829949999936   10.4987696089513474
  12.8564762302999931    7.4226900119999932   10.4987696089513474
   0.0000000000000000    0.0000000000000000   12.6063618648222011
   1.2856476307000000    2.2268070170000001   12.6063618648222011
   2.5712952614000000    4.4536140340000001   12.6063618648222011
   3.8569428921000002    6.6804210509999997   12.6063618648222011
   2.5712952614000000    0.0000000000000000   12.6063618648222011
   3.8569428921000002    2.2268070170000001   12.6063618648222011
   5.1425905228000000    4.4536140340000001   12.6063618648222011
   6.4282381535000006    6.6804210509999997   12.6063618648222011
   5.1425905228000000    0.0000000000000000   12.6063618648222011
   6.4282381534999997    2.2268070170000001   12.6063618648222011
   7.7138857842000004    4.4536140340000001   12.6063618648222011
   8.9995334149000001    6.6804210509999997   12.6063618648222011
   7.7138857842000004    0.0000000000000000   12.6063618648222011
   8.9995334149000001    2.2268070170000001   12.6063618648222011
  10.2851810455999999    4.4536140340000001   12.6063618648222011
  11.5708286762999997    6.6804210509999997   12.6063618648222011
   2.5712951080000064    1.4845379229999942   14.7139551036653078
   3.8569427387000061    3.7113449399999943   14.7139551036653078
   5.1425903694000059    5.9381519569999943   14.7139551036653078
   6.4282380001000066    8.1649589739999939   14.7139551036653078
   5.1425903694000059    1.4845379229999942   14.7139551036653078
   6.4282380001000066    3.7113449399999943   14.7139551036653078
   7.7138856308000063    5.9381519569999943   14.7139551036653078
   8.9995332615000070    8.1649589739999939   14.7139551036653078
   7.7138856308000063    1.4845379229999942   14.7139551036653078
   8.9995332615000052    3.7113449399999943   14.7139551036653078
  10.2851808922000068    5.9381519569999943   14.7139551036653078
  11.5708285229000065    8.1649589739999939   14.7139551036653078
  10.2851808922000068    1.4845379229999942   14.7139551036653078
  11.5708285229000065    3.7113449399999943   14.7139551036653078
  12.8564761536000063    5.9381519569999943   14.7139551036653078
  14.1421237843000061    8.1649589739999939   14.7139551036653078
   1.2856475539999939    0.7222689609999932   16.8159162965492293
   2.5712951846999941    2.9690759779999931   16.8159162965492293
   3.8569428153999938    5.1958829949999936   16.8159162965492293
   5.1425904460999945    7.4226900119999932   16.8159162965492293
   3.8569428153999938    0.7422689609999932   16.8159162965492293
   5.1425904460999945    2.9690759779999931   16.8159162965492293
   6.4282380767999943    5.1958829949999936   16.8159162965492293
   7.7138857074999940    7.4226900119999932   16.8159162965492293
   6.4282380767999943    0.7422689609999932   16.8159162965492293
   7.7138857074999940    2.9690759779999931   16.8159162965492293
   8.9995333381999938    5.1958829949999936   16.8159162965492293
  10.2851809688999936    7.4226900119999932   16.8159162965492293
   8.9995333381999938    0.7422689609999932   16.8159162965492293
  10.2851809688999936    2.9690759779999931   16.8159162965492293
  11.5708285995999933    5.1958829949999936   16.8159162965492293
  12.8564762302999931    7.4226900119999932   16.8159162965492293
   0.0000000000000000    0.0000000000000000   18.9003445564971102
   1.2856476307000000    2.2268070170000001   18.9003445564971102
   2.5712952614000000    4.4536140340000001   18.9003445564971102
   3.8569428921000002    6.6804210509999997   18.9003445564971102
   2.5712952614000000    0.0000000000000000   18.9003445564971102
   3.8569428921000002    2.2268070170000001   18.9003445564971102
   5.1425905228000000    4.4536140340000001   18.9003445564971102
   6.4282381535000006    6.6804210509999997   18.9003445564971102
   5.1425905228000000    0.0000000000000000   18.9003445564971102
   6.4282381534999997    2.2268070170000001   18.9003445564971102
   7.7138857842000004    4.4536140340000001   18.9003445564971102
   8.9995334149000001    6.6804210509999997   18.9003445564971102
   7.7138857842000004    0.0000000000000000   18.9003445564971102
   8.9995334149000001    2.2268070170000001   18.9003445564971102
  10.2851810455999999    4.4536140340000001   18.9003445564971102
  11.5708286762999997    6.6804210509999997   18.9003445564971102
