As1 In1                                 
   1.00000000000000     
     8.5171680450000000    0.0000000000000000    0.0000000000000000
    -4.2585840225000000    7.3760838952999999    0.0000000000000000
     0.0000000000000000    0.0000000000000000   31.2940731049000007
   In   As   H 
    23    16     4
Selective dynamics
Direct
  0.0977908397177541  0.7988954193588691  0.9956825338601460   T   T   T
  0.7011045806411309  0.7988954193588691  0.9956825338601460   T   T   T
  0.7011045806411309  0.4022091302822436  0.9956825338601460   T   T   T
  0.0532317178315516  0.1064634356630961  0.9949024483473735   T   T   T
  0.3935365643369046  0.4467682821684493  0.9949024483473735   T   T   T
  0.5000000000000000  0.0000000000000000  0.9949307478668825   T   T   T
  0.0532317178315516  0.4467682821684493  0.9949024483473735   T   T   T
  0.3337425071051630  0.6674850152103368  0.1111490521801881   F F F
  0.8325149847896632  0.1662575078948342  0.1111490521801881   F F F
  0.8333333129999971  0.6666666870000029  0.1095107312496424   F F F
  0.3337425071051630  0.1662575078948342  0.1111490521801881   F F F
  0.6666666870000029  0.3333333429999996  0.2222222239999994   F   F   F
  0.1666666269999979  0.8333333129999971  0.2222222239999994   F   F   F
  0.1666666269999979  0.3333333730000021  0.2222222239999994   F   F   F
  0.6666666870000029  0.8333333129999971  0.2222222239999994   F   F   F
  0.0000000000000000  0.0000000000000000  0.3333333429999996   F   F   F
  0.5000000000000000  0.5000000000000000  0.3333333429999996   F   F   F
  0.5000000000000000  0.0000000000000000  0.3333333429999996   F   F   F
  0.0000000000000000  0.5000000000000000  0.3333333429999996   F   F   F
  0.3333333429999996  0.6666666870000029  0.4444444479999987   F   F   F
  0.8333333129999971  0.1666666719999981  0.4444444479999987   F   F   F
  0.8333333129999971  0.6666666870000029  0.4444444479999987   F   F   F
  0.3333333429999996  0.1666666719999981  0.4444444479999987   F   F   F
  0.0012080873169622  0.0024161746339315  0.0792709655939349   T   T   T
  0.0012080873169693  0.4987919126830372  0.0792710025939344   T   T   T
  0.5000000000000000  0.0000000000000000  0.0809448461656466   T   T   T
  0.4975838253660681  0.4987919126830372  0.0792710025939344   T   T   T
  0.3332066115609145  0.6664132241218398  0.1945297293617256   F F F
  0.3332066115609145  0.1667934034390835  0.1945297293617256   F F F
  0.8333333129999971  0.6666666870000029  0.1934286008101411   F F F
  0.8335867758781602  0.1667934034390835  0.1945297293617256   F F F
  0.6666666870000029  0.3333333429999996  0.3055555520000013   F   F   F
  0.6666666870000029  0.8333333129999971  0.3055555520000013   F   F   F
  0.1666666269999979  0.3333333730000021  0.3055555520000013   F   F   F
  0.1666666269999979  0.8333333129999971  0.3055555520000013   F   F   F
  0.0000000000000000  0.0000000000000000  0.4166666570000004   F   F   F
  0.0000000000000000  0.5000000000000000  0.4166666570000004   F   F   F
  0.5000000000000000  0.0000000000000000  0.4166666570000004   F   F   F
  0.5000000000000000  0.5000000000000000  0.4166666570000004   F   F   F
  0.3333333429999996  0.6666666870000029  0.5000707973295704   F   F   F
  0.3333333429999996  0.1666666719999981  0.5000707973295704   F   F   F
  0.8333333129999971  0.6666666870000029  0.5000707973295704   F   F   F
  0.8333333129999971  0.1666666719999981  0.5000707973295704   F   F   F
 
  0.00000000E+00  0.00000000E+00  0.00000000E+00
  0.00000000E+00  0.00000000E+00  0.00000000E+00
  0.00000000E+00  0.00000000E+00  0.00000000E+00
  0.00000000E+00  0.00000000E+00  0.00000000E+00
  0.00000000E+00  0.00000000E+00  0.00000000E+00
  0.00000000E+00  0.00000000E+00  0.00000000E+00
  0.00000000E+00  0.00000000E+00  0.00000000E+00
  0.00000000E+00  0.00000000E+00  0.00000000E+00
  0.00000000E+00  0.00000000E+00  0.00000000E+00
  0.00000000E+00  0.00000000E+00  0.00000000E+00
  0.00000000E+00  0.00000000E+00  0.00000000E+00
  0.00000000E+00  0.00000000E+00  0.00000000E+00
  0.00000000E+00  0.00000000E+00  0.00000000E+00
  0.00000000E+00  0.00000000E+00  0.00000000E+00
  0.00000000E+00  0.00000000E+00  0.00000000E+00
  0.00000000E+00  0.00000000E+00  0.00000000E+00
  0.00000000E+00  0.00000000E+00  0.00000000E+00
  0.00000000E+00  0.00000000E+00  0.00000000E+00
  0.00000000E+00  0.00000000E+00  0.00000000E+00
  0.00000000E+00  0.00000000E+00  0.00000000E+00
  0.00000000E+00  0.00000000E+00  0.00000000E+00
  0.00000000E+00  0.00000000E+00  0.00000000E+00
  0.00000000E+00  0.00000000E+00  0.00000000E+00
  0.00000000E+00  0.00000000E+00  0.00000000E+00
  0.00000000E+00  0.00000000E+00  0.00000000E+00
  0.00000000E+00  0.00000000E+00  0.00000000E+00
  0.00000000E+00  0.00000000E+00  0.00000000E+00
  0.00000000E+00  0.00000000E+00  0.00000000E+00
  0.00000000E+00  0.00000000E+00  0.00000000E+00
  0.00000000E+00  0.00000000E+00  0.00000000E+00
  0.00000000E+00  0.00000000E+00  0.00000000E+00
  0.00000000E+00  0.00000000E+00  0.00000000E+00
  0.00000000E+00  0.00000000E+00  0.00000000E+00
  0.00000000E+00  0.00000000E+00  0.00000000E+00
  0.00000000E+00  0.00000000E+00  0.00000000E+00
  0.00000000E+00  0.00000000E+00  0.00000000E+00
  0.00000000E+00  0.00000000E+00  0.00000000E+00
  0.00000000E+00  0.00000000E+00  0.00000000E+00
  0.00000000E+00  0.00000000E+00  0.00000000E+00
  0.00000000E+00  0.00000000E+00  0.00000000E+00
  0.00000000E+00  0.00000000E+00  0.00000000E+00
  0.00000000E+00  0.00000000E+00  0.00000000E+00
  0.00000000E+00  0.00000000E+00  0.00000000E+00
