As1 In1                                 
   1.00000000000000     
     8.5171680450000000    0.0000000000000000    0.0000000000000000
    -4.2585840225000000    7.3760838952999999    0.0000000000000000
     0.0000000000000000    0.0000000000000000   31.2940731049000007
   In   As   H 
    19    20     4
Selective dynamics
Direct
  0.0000000000000000  0.0000000000000000  0.0000000000000000   F   F   F
  0.5000000000000000  0.5000000000000000  0.0000000000000000   F   F   F
  0.5000000000000000  0.0000000000000000  0.0000000000000000   F   F   F
  0.0000000000000000  0.5000000000000000  0.0000000000000000   F   F   F
  0.3333333429999996  0.6666666870000029  0.1111111120000032   F   F   F
  0.8333333129999971  0.1666666719999981  0.1111111120000032   F   F   F
  0.8333333129999971  0.6666666870000029  0.1111111120000032   F   F   F
  0.3333333429999996  0.1666666719999981  0.1111111120000032   F   F   F
  0.6666666870000029  0.3333333429999996  0.2230456938512712   F F F
  0.1666283586269371  0.8333715813730572  0.2221475906526496   F F F
  0.1666283586269371  0.3332568362538734  0.2221475906526496   F F F
  0.6667432237461338  0.8333715813730572  0.2221475906526496   F F F
  0.0000000000000000 -0.0000000000000000  0.3330918731979114   T   T   T
  0.4987195716855267  0.5012804283144732  0.3352557214228977   T   T   T
  0.4987195716855267  0.9974391433710533  0.3352557214228977   T   T   T
  0.0025608566289469  0.5012804283144732  0.3352557214228977   T   T   T
  0.8197798444549856  0.1802201405450090  0.4211482740054666   T   T   T
  0.8197798444549856  0.6395597499099882  0.4211482740054666   T   T   T
  0.3604402800900143  0.1802201405450090  0.4211482740054666   T   T   T
  0.0000000000000000  0.0000000000000000  0.0833333360000026   F   F   F
  0.0000000000000000  0.5000000000000000  0.0833333730000021   F   F   F
  0.5000000000000000  0.0000000000000000  0.0833333730000021   F   F   F
  0.5000000000000000  0.5000000000000000  0.0833333730000021   F   F   F
  0.3333333429999996  0.6666666870000029  0.1944444479999987   F   F   F
  0.3333333429999996  0.1666666719999981  0.1944444479999987   F   F   F
  0.8333333129999971  0.6666666870000029  0.1944444479999987   F   F   F
  0.8333333129999971  0.1666666719999981  0.1944444479999987   F   F   F
  0.6666666870000029  0.3333333429999996  0.3067037117399889   F F F
  0.6658636535988688  0.8329317962994303  0.3053852438984146   F F F
  0.1670681437005652  0.3341364064011368  0.3053852438984146   F F F
  0.1670681437005652  0.8329317962994303  0.3053852438984146   F F F
  0.0000000000000000 -0.0000000000000000  0.4180599711272799   T   T   T
  0.0494716764186410  0.5247358382093209  0.4196525966005324   T   T   T
  0.4752641617906787  0.9505283235813573  0.4196525966005324   T   T   T
  0.4752641617906787  0.5247358382093209  0.4196525966005324   T   T   T
  0.1666666269999979  0.3333333730000021  0.9722222090000017   F   F   F
  0.1666666269999979  0.8333333129999971  0.9722222090000017   F   F   F
  0.6666666870000029  0.8333333129999971  0.9722222090000017   F   F   F
  0.6666666870000029  0.3333333429999996  0.9722222090000017   F   F   F
  0.6666666870000029  0.3333333429999996  0.9224199777824609   F   F   F
  0.1666666269999979  0.8333333129999971  0.9224199777824609   F   F   F
  0.6666666870000029  0.8333333129999971  0.9224199777824609   F   F   F
  0.1666666269999979  0.3333333730000021  0.9224199777824609   F   F   F
 
  0.00000000E+00  0.00000000E+00  0.00000000E+00
  0.00000000E+00  0.00000000E+00  0.00000000E+00
  0.00000000E+00  0.00000000E+00  0.00000000E+00
  0.00000000E+00  0.00000000E+00  0.00000000E+00
  0.00000000E+00  0.00000000E+00  0.00000000E+00
  0.00000000E+00  0.00000000E+00  0.00000000E+00
  0.00000000E+00  0.00000000E+00  0.00000000E+00
  0.00000000E+00  0.00000000E+00  0.00000000E+00
  0.00000000E+00  0.00000000E+00  0.00000000E+00
  0.00000000E+00  0.00000000E+00  0.00000000E+00
  0.00000000E+00  0.00000000E+00  0.00000000E+00
  0.00000000E+00  0.00000000E+00  0.00000000E+00
  0.00000000E+00  0.00000000E+00  0.00000000E+00
  0.00000000E+00  0.00000000E+00  0.00000000E+00
  0.00000000E+00  0.00000000E+00  0.00000000E+00
  0.00000000E+00  0.00000000E+00  0.00000000E+00
  0.00000000E+00  0.00000000E+00  0.00000000E+00
  0.00000000E+00  0.00000000E+00  0.00000000E+00
  0.00000000E+00  0.00000000E+00  0.00000000E+00
  0.00000000E+00  0.00000000E+00  0.00000000E+00
  0.00000000E+00  0.00000000E+00  0.00000000E+00
  0.00000000E+00  0.00000000E+00  0.00000000E+00
  0.00000000E+00  0.00000000E+00  0.00000000E+00
  0.00000000E+00  0.00000000E+00  0.00000000E+00
  0.00000000E+00  0.00000000E+00  0.00000000E+00
  0.00000000E+00  0.00000000E+00  0.00000000E+00
  0.00000000E+00  0.00000000E+00  0.00000000E+00
  0.00000000E+00  0.00000000E+00  0.00000000E+00
  0.00000000E+00  0.00000000E+00  0.00000000E+00
  0.00000000E+00  0.00000000E+00  0.00000000E+00
  0.00000000E+00  0.00000000E+00  0.00000000E+00
  0.00000000E+00  0.00000000E+00  0.00000000E+00
  0.00000000E+00  0.00000000E+00  0.00000000E+00
  0.00000000E+00  0.00000000E+00  0.00000000E+00
  0.00000000E+00  0.00000000E+00  0.00000000E+00
  0.00000000E+00  0.00000000E+00  0.00000000E+00
  0.00000000E+00  0.00000000E+00  0.00000000E+00
  0.00000000E+00  0.00000000E+00  0.00000000E+00
  0.00000000E+00  0.00000000E+00  0.00000000E+00
  0.00000000E+00  0.00000000E+00  0.00000000E+00
  0.00000000E+00  0.00000000E+00  0.00000000E+00
  0.00000000E+00  0.00000000E+00  0.00000000E+00
  0.00000000E+00  0.00000000E+00  0.00000000E+00
