Copper                                  
   1.00000000000000     
     5.1425905228000000    0.0000000000000000    0.0000000000000000
     2.5712952614000000    4.4536140340000001    0.0000000000000000
     0.0000000000000000    0.0000000000000000   27.7901687622000004
   Cu   O 
    28     1
Selective dynamics
Direct
  0.0000000000000000  0.0000000000000000  0.2266399005668163   F   F   F
  0.0000000000583356  0.5000000000000000  0.2266399005668163   F   F   F
  0.4999999999222169  0.0000000000000000  0.2266399005668163   F   F   F
  0.4999999999805524  0.5000000000000000  0.2266399005668163   F   F   F
  0.3333333134210505  0.3333333134992529  0.3021865340890884   F   F   F
  0.3333333134793861  0.8333333134992529  0.3021865340890884   F   F   F
  0.8333333135377217  0.3333333134992529  0.3021865340890884   F   F   F
  0.8333333134016030  0.8333333134992529  0.3021865340890884   F   F   F
  0.1663553787101452  0.1663553787446705  0.3772594876160265   F F F
  0.1663553787077720  0.6672892128718049  0.3772594876160265   F F F
  0.6672892128325261  0.1663553787446705  0.3772594876160265   F F F
  0.6666666268421011  0.6666666269985058  0.3772711306789110   F F F
  0.0000000000000000 -0.0000000000000000  0.4530746874445178   F F F
  0.0001770357994602  0.4999114726690789  0.4523883794553336   F F F
  0.4999114724935678  0.0001770358007676  0.4523883794553336   F F F
  0.4999114725138182  0.4999114726690789  0.4523883794553336   F F F
  0.3333333134210505  0.3333333134992529  0.5276831757906770   T   T   T
  0.3358035073422778  0.8320982464232128  0.5280816950023168   T   T   T
  0.8320982463498351  0.3358035073780891  0.5280816950023168   T   T   T
  0.8320982463122616  0.8320982464232128  0.5280816950023168   T   T   T
  0.1677715867100364  0.1677715866989164  0.6022802748840691   T   T   T
  0.1677715867329798  0.6644567668753887  0.6022802748840691   T   T   T
  0.6644567669323955  0.1677715866989164  0.6022802748840691   T   T   T
  0.6666666268421011  0.6666666269985058  0.6057123852232065   T   T   T
  0.0000000000000000 -0.0000000000000000  0.6736626134343340   T   T   T
  0.9877554408228649  0.5061223093614533  0.6806032469735743   T   T   T
  0.5061223094007747  0.9877554407793300  0.6806032469735743   T   T   T
  0.5061223093965470  0.5061223093614533  0.6806032469735743   T   T   T
  0.3333333134210505  0.3333333134992529  0.7198060272515540   T   T   T
 
  0.00000000E+00  0.00000000E+00  0.00000000E+00
  0.00000000E+00  0.00000000E+00  0.00000000E+00
  0.00000000E+00  0.00000000E+00  0.00000000E+00
  0.00000000E+00  0.00000000E+00  0.00000000E+00
  0.00000000E+00  0.00000000E+00  0.00000000E+00
  0.00000000E+00  0.00000000E+00  0.00000000E+00
  0.00000000E+00  0.00000000E+00  0.00000000E+00
  0.00000000E+00  0.00000000E+00  0.00000000E+00
  0.00000000E+00  0.00000000E+00  0.00000000E+00
  0.00000000E+00  0.00000000E+00  0.00000000E+00
  0.00000000E+00  0.00000000E+00  0.00000000E+00
  0.00000000E+00  0.00000000E+00  0.00000000E+00
  0.00000000E+00  0.00000000E+00  0.00000000E+00
  0.00000000E+00  0.00000000E+00  0.00000000E+00
  0.00000000E+00  0.00000000E+00  0.00000000E+00
  0.00000000E+00  0.00000000E+00  0.00000000E+00
  0.00000000E+00  0.00000000E+00  0.00000000E+00
  0.00000000E+00  0.00000000E+00  0.00000000E+00
  0.00000000E+00  0.00000000E+00  0.00000000E+00
  0.00000000E+00  0.00000000E+00  0.00000000E+00
  0.00000000E+00  0.00000000E+00  0.00000000E+00
  0.00000000E+00  0.00000000E+00  0.00000000E+00
  0.00000000E+00  0.00000000E+00  0.00000000E+00
  0.00000000E+00  0.00000000E+00  0.00000000E+00
  0.00000000E+00  0.00000000E+00  0.00000000E+00
  0.00000000E+00  0.00000000E+00  0.00000000E+00
  0.00000000E+00  0.00000000E+00  0.00000000E+00
  0.00000000E+00  0.00000000E+00  0.00000000E+00
  0.00000000E+00  0.00000000E+00  0.00000000E+00
