Backward Displacement
1.00000000000000
  11.4605097771000004    0.0000000000000000    0.0000000000000000
  -5.7302548884000002    9.9250926071999999    0.0000000000000000
   0.0000000000000000    0.0000000000000000   46.7873382567999982
Si    As    Ga    H    H
63    27    36    9    9
Cartesian
   0.0000009111438477    2.2055750178090263    8.5776837646373583
  -1.9100840516561524    5.5139392202090267    8.5776837646373583
  -3.8201690144561526    8.8223034226090267    8.5776837646373583
   3.8201708368438476    2.2055750178090263    8.5776837646373583
   1.9100858740438478    5.5139392202090267    8.5776837646373583
   0.0000009112438477    8.8223034226090267    8.5776837646373583
   7.6403407625438478    2.2055750178090263    8.5776837646373583
   5.7302557997438477    5.5139392202090267    8.5776837646373583
   3.8201708369438476    8.8223034226090267    8.5776837646373583
   0.0000000000000000    0.0000000000000000    9.3574733594152057
  -1.9100849628000001    3.3083642024000000    9.3574733594152057
  -3.8201699256000001    6.6167284047999999    9.3574733594152057
   3.8201699257000001    0.0000000000000000    9.3574733594152057
   1.9100849629000001    3.3083642024000000    9.3574733594152057
   0.0000000001000000    6.6167284047999999    9.3574733594152057
   7.6403398514000003    0.0000000000000000    9.3574733594152057
   5.7302548886000002    3.3083642024000000    9.3574733594152057
   3.8201699258000001    6.6167284047999999    9.3574733594152057
   0.0000000000000000    0.0000000000000000   11.6968373714401981
  -1.9100849628000001    3.3083642024000000   11.6968373714401981
  -3.8201699256000001    6.6167284047999999   11.6968373714401981
   3.8201699257000001    0.0000000000000000   11.6968373714401981
   1.9100849629000001    3.3083642024000000   11.6968373714401981
   0.0000000001000000    6.6167284047999999   11.6968373714401981
   7.6403398514000003    0.0000000000000000   11.6968373714401981
   5.7302548886000002    3.3083642024000000   11.6968373714401981
   3.8201699258000001    6.6167284047999999   11.6968373714401981
   1.9100851328642219    1.1027871135549996   12.4766269662180456
   0.0000001700642218    4.4111513159549993   12.4766269662180456
  -1.9100847927357782    7.7195155183549993   12.4766269662180456
   5.7302550585642216    1.1027871135549996   12.4766269662180456
   3.8201700957642220    4.4111513159549993   12.4766269662180456
   1.9100851329642219    7.7195155183549993   12.4766269662180456
   9.5504249842642217    1.1027871135549996   12.4766269662180456
   7.6403400214642225    4.4111513159549993   12.4766269662180456
   5.7302550586642216    7.7195155183549993   12.4766269662180456
   1.9100851328642219    1.1027871135549996   14.8150386885684089
   0.0000001700642218    4.4111513159549993   14.8150386885684089
  -1.9100847927357782    7.7195155183549993   14.8150386885684089
   5.7302550585642216    1.1027871135549996   14.8150386885684089
   3.8201700957642220    4.4111513159549993   14.8150386885684089
   1.9100851329642219    7.7195155183549993   14.8150386885684089
   9.5504249842642217    1.1027871135549996   14.8150386885684089
   7.6403400214642225    4.4111513159549993   14.8150386885684089
   5.7302550586642216    7.7195155183549993   14.8150386885684089
   0.0000009111438477    2.2055750178090263   15.6120201950684852
  -1.9100840516561524    5.5139392202090267   15.6120201950684852
  -3.8201690144561526    8.8223034226090267   15.6120201950684852
   3.8201708368438476    2.2055750178090263   15.6120201950684852
   1.9100858740438478    5.5139392202090267   15.6120201950684852
   0.0000009112438477    8.8223034226090267   15.6120201950684852
   7.6403407625438478    2.2055750178090263   15.6120201950684852
   5.7302557997438477    5.5139392202090267   15.6120201950684852
   3.8201708369438476    8.8223034226090267   15.6120201950684852
   0.0000009111438477    2.2055750178090263   17.9314580696281247
  -1.9100840516561524    5.5139392202090267   17.9314580696281247
  -3.8201690144561526    8.8223034226090267   17.9314580696281247
   3.8201708368438476    2.2055750178090263   17.9314580696281247
   1.9100858740438478    5.5139392202090267   17.9314580696281247
   0.0000009112438477    8.8223034226090267   17.9314580696281247
   7.6403407625438478    2.2055750178090263   17.9314580696281247
   5.7302557997438477    5.5139392202090267   17.9314580696281247
   3.8201708369438476    8.8223034226090267   17.9314580696281247
   0.0000000000000000   -0.0200000000000000   21.2290973414748088
  -1.9100849628000001    3.3083642024000000   21.2290973414748088
  -3.8201699256000001    6.6167284047999999   21.2290973414748088
   3.8201699257000001    0.0000000000000000   21.2290973414748088
   1.9100849629000001    3.3083642024000000   21.2290973414748088
   0.0000000001000000    6.6167284047999999   21.2290973414748088
   7.6403398514000003    0.0000000000000000   21.2290973414748088
   5.7302548886000002    3.3083642024000000   21.2290973414748088
   3.8201699258000001    6.6167284047999999   21.2290973414748088
   1.9100851328642219    1.1027871135549996   24.5512793337540316
   0.0000001700642218    4.4111513159549993   24.5512793337540316
  -1.9100847927357782    7.7195155183549993   24.5512793337540316
   5.7302550585642216    1.1027871135549996   24.5512793337540316
   3.8201700957642220    4.4111513159549993   24.5512793337540316
   1.9100851329642219    7.7195155183549993   24.5512793337540316
   9.5504249842642217    1.1027871135549996   24.5512793337540316
   7.6403400214642225    4.4111513159549993   24.5512793337540316
   5.7302550586642216    7.7195155183549993   24.5512793337540316
   0.0000009111438477    2.2055750178090263   27.8500955281122309
  -1.9100840516561524    5.5139392202090267   27.8500955281122309
  -3.8201690144561526    8.8223034226090267   27.8500955281122309
   3.8201708368438476    2.2055750178090263   27.8500955281122309
   1.9100858740438478    5.5139392202090267   27.8500955281122309
   0.0000009112438477    8.8223034226090267   27.8500955281122309
   7.6403407625438478    2.2055750178090263   27.8500955281122309
   5.7302557997438477    5.5139392202090267   27.8500955281122309
   3.8201708369438476    8.8223034226090267   27.8500955281122309
   0.0000000000000000    0.0000000000000000   18.8150925155329034
  -1.9100849628000001    3.3083642024000000   18.8150925155329034
  -3.8201699256000001    6.6167284047999999   18.8150925155329034
   3.8201699257000001    0.0000000000000000   18.8150925155329034
   1.9100849629000001    3.3083642024000000   18.8150925155329034
   0.0000000001000000    6.6167284047999999   18.8150925155329034
   7.6403398514000003    0.0000000000000000   18.8150925155329034
   5.7302548886000002    3.3083642024000000   18.8150925155329034
   3.8201699258000001    6.6167284047999999   18.8150925155329034
   1.9100851328642219    1.1027871135549996   22.1302603422820177
   0.0000001700642218    4.4111513159549993   22.1302603422820177
  -1.9100847927357782    7.7195155183549993   22.1302603422820177
   5.7302550585642216    1.1027871135549996   22.1302603422820177
   3.8201700957642220    4.4111513159549993   22.1302603422820177
   1.9100851329642219    7.7195155183549993   22.1302603422820177
   9.5504249842642217    1.1027871135549996   22.1302603422820177
   7.6403400214642225    4.4111513159549993   22.1302603422820177
   5.7302550586642216    7.7195155183549993   22.1302603422820177
   0.0000009111438477    2.2055750178090263   25.4398109927784652
  -1.9100840516561524    5.5139392202090267   25.4398109927784652
  -3.8201690144561526    8.8223034226090267   25.4398109927784652
   3.8201708368438476    2.2055750178090263   25.4398109927784652
   1.9100858740438478    5.5139392202090267   25.4398109927784652
   0.0000009112438477    8.8223034226090267   25.4398109927784652
   7.6403407625438478    2.2055750178090263   25.4398109927784652
   5.7302557997438477    5.5139392202090267   25.4398109927784652
   3.8201708369438476    8.8223034226090267   25.4398109927784652
   0.0000000000000000    0.0000000000000000   28.7067349592751810
  -1.9100849628000001    3.3083642024000000   28.7067349592751810
  -3.8201699256000001    6.6167284047999999   28.7067349592751810
   3.8201699257000001    0.0000000000000000   28.7067349592751810
   1.9100849629000001    3.3083642024000000   28.7067349592751810
   0.0000000001000000    6.6167284047999999   28.7067349592751810
   7.6403398514000003    0.0000000000000000   28.7067349592751810
   5.7302548886000002    3.3083642024000000   28.7067349592751810
   3.8201699258000001    6.6167284047999999   28.7067349592751810
   0.0000000000000000    0.0000000000000000   30.2626203683033665
  -1.9100849628000001    3.3083642024000000   30.2626203683033665
  -3.8201699256000001    6.6167284047999999   30.2626203683033665
   3.8201699257000001    0.0000000000000000   30.2626203683033665
   1.9100849629000001    3.3083642024000000   30.2626203683033665
   0.0000000001000000    6.6167284047999999   30.2626203683033665
   7.6403398514000003    0.0000000000000000   30.2626203683033665
   5.7302548886000002    3.3083642024000000   30.2626203683033665
   3.8201699258000001    6.6167284047999999   30.2626203683033665
   0.0000009111438477    2.2055750178090263    7.0726672191458206
  -1.9100840516561524    5.5139392202090267    7.0726672191458206
  -3.8201690144561526    8.8223034226090267    7.0726672191458206
   3.8201708368438476    2.2055750178090263    7.0726672191458206
   1.9100858740438478    5.5139392202090267    7.0726672191458206
   0.0000009112438477    8.8223034226090267    7.0726672191458206
   7.6403407625438478    2.2055750178090263    7.0726672191458206
   5.7302557997438477    5.5139392202090267    7.0726672191458206
   3.8201708369438476    8.8223034226090267    7.0726672191458206
