Backward Displacement
1.00000000000000
  17.0343360900000000    0.0000000000000000    0.0000000000000000
  -8.5171680450000000   14.7521677905999997    0.0000000000000000
   0.0000000000000000    0.0000000000000000   31.2940731049000007
In    As    H
76    80    16
Cartesian
   0.0000000000000000    0.0000000000000000    0.0000000000000000
  -4.2585840225000000    7.3760838952999999    0.0000000000000000
   8.5171680450000000    0.0000000000000000    0.0000000000000000
   4.2585840225000000    7.3760838952999999    0.0000000000000000
   2.1292920112500000    3.6880419476499999    0.0000000000000000
  -2.1292920112500000   11.0641258429500002    0.0000000000000000
  10.6464600562499996    3.6880419476499999    0.0000000000000000
   6.3878760337500005   11.0641258429500002    0.0000000000000000
   4.2585840225000000    0.0000000000000000    0.0000000000000000
   0.0000000000000000    7.3760838952999999    0.0000000000000000
  12.7757520675000009    0.0000000000000000    0.0000000000000000
   8.5171680450000000    7.3760838952999999    0.0000000000000000
  -2.1292920112500000    3.6880419476499999    0.0000000000000000
  -6.3878760337500005   11.0641258429500002    0.0000000000000000
   6.3878760337500005    3.6880419476499999    0.0000000000000000
   2.1292920112500000   11.0641258429500002    0.0000000000000000
  -0.0000000042585993    4.9173894135137273    3.4771192616948321
  -4.2585840267585997   12.2934733088137271    3.4771192616948321
   8.5171680407414012    4.9173894135137273    3.4771192616948321
   4.2585840182414003   12.2934733088137271    3.4771192616948321
   6.3878758378551188    1.2293473552224334    3.4771192616948321
   2.1292918153551188    8.6054312505224324    3.4771192616948321
  14.9050438828551179    1.2293473552224334    3.4771192616948321
  10.6464598603551188    8.6054312505224324    3.4771192616948321
   4.2585837627263388    4.9173894135137273    3.4771192616948321
  -0.0000002597736612   12.2934733088137271    3.4771192616948321
  12.7757518077263388    4.9173894135137273    3.4771192616948321
   8.5171677852263379   12.2934733088137271    3.4771192616948321
   2.1292920708701812    1.2293473552224334    3.4771192616948321
  -2.1292919516298188    8.6054312505224324    3.4771192616948321
  10.6464601158701804    1.2293473552224334    3.4771192616948321
   6.3878760933701813    8.6054312505224324    3.4771192616948321
   4.2585841545161305    2.4586947030688080    6.9800082491148254
   0.0000001320161305    9.8347785983688070    6.9800082491148254
  12.7757521995161305    2.4586947030688080    6.9800082491148254
   8.5171681770161314    9.8347785983688070    6.9800082491148254
  -2.1297811697527118    6.1470187001665009    6.9519029419614169
  -6.3883651922527118   13.5231025954665007    6.9519029419614169
   6.3873868752472882    6.1470187001665009    6.9519029419614169
   2.1288028527472882   13.5231025954665007    6.9519029419614169
  -0.0000005067714954    2.4581303828908250    6.9519029419614169
  -4.2585845292714950    9.8342142781908244    6.9519029419614169
   8.5171675382285041    2.4581303828908250    6.9519029419614169
   4.2585835157285050    9.8342142781908244    6.9519029419614169
   2.1297811782699956    6.1470187001665009    6.9519029419614169
  -2.1288028442300044   13.5231025954665007    6.9519029419614169
  10.6469492232699956    6.1470187001665009    6.9519029419614169
   6.3883652007699956   13.5231025954665007    6.9519029419614169
   0.0000000000000000    0.0000000000000000   10.4238014305035200
  -4.2585840225000000    7.3760838952999999   10.4238014305035200
   8.5171680450000000    0.0000000000000000   10.4238014305035200
   4.2585840225000000    7.3760838952999999   10.4238014305035200
   2.1129335765640835    3.6974864943194716   10.4915170550441506
  -2.1456504459359165   11.0735703896194710   10.4915170550441506
  10.6301016215640836    3.6974864943194716   10.4915170550441506
   6.3715175990640835   11.0735703896194710   10.4915170550441506
   0.0000000000000009    7.3571948019610538   10.4915170550441506
  -4.2585840224999991   14.7332786972610528   10.4915170550441506
   8.5171680450000018    7.3571948019610538   10.4915170550441506
   4.2585840225000009   14.7332786972610528   10.4915170550441506
  -2.1129335765640791    3.6974864943194716   10.4915170550441506
  -6.3715175990640791   11.0735703896194710   10.4915170550441506
   6.4042344684359209    3.6974864943194716   10.4915170550441506
   2.1456504459359209   11.0735703896194710   10.4915170550441506
   6.2147200840693948    1.3293188762827435   13.1794448747295281
   1.9561360615693948    8.7054027715827438   13.1794448747295281
  14.7318881290693948    1.3293188762827435   13.1794448747295281
  10.4733041065693939    8.7054027715827438   13.1794448747295281
   4.2585837627263023    4.7174463713931596   13.1794448747295281
  -0.0000002597736977   12.0935302666931594   13.1794448747295281
  12.7757518077263015    4.7174463713931596   13.1794448747295281
   8.5171677852263024   12.0935302666931594   13.1794448747295281
   2.3024478246558395    1.3293188762827435   13.1794448747295281
  -1.9561361978441605    8.7054027715827438   13.1794448747295281
  10.8196158696558395    1.3293188762827435   13.1794448747295281
   6.5610318471558395    8.7054027715827438   13.1794448747295281
   0.0000000000000000    0.0000000000000000    2.6078395088592763
  -4.2585840225000000    7.3760838952999999    2.6078395088592763
   8.5171680450000000    0.0000000000000000    2.6078395088592763
   4.2585840225000000    7.3760838952999999    2.6078395088592763
  -2.1292920112500000    3.6880419476499999    2.6078406667399654
  -6.3878760337500005   11.0641258429500002    2.6078406667399654
   6.3878760337500005    3.6880419476499999    2.6078406667399654
   2.1292920112500000   11.0641258429500002    2.6078406667399654
   4.2585840225000000    0.0000000000000000    2.6078406667399654
   0.0000000000000000    7.3760838952999999    2.6078406667399654
  12.7757520675000009    0.0000000000000000    2.6078406667399654
   8.5171680450000000    7.3760838952999999    2.6078406667399654
   2.1292920112500000    3.6880419476499999    2.6078406667399654
  -2.1292920112500000   11.0641258429500002    2.6078406667399654
  10.6464600562499996    3.6880419476499999    2.6078406667399654
   6.3878760337500005   11.0641258429500002    2.6078406667399654
  -0.0000000042585993    4.9173894135137273    6.0849587705538859
  -4.2585840267585997   12.2934733088137271    6.0849587705538859
   8.5171680407414012    4.9173894135137273    6.0849587705538859
   4.2585840182414003   12.2934733088137271    6.0849587705538859
   2.1292920708701812    1.2293473552224334    6.0849587705538859
  -2.1292919516298188    8.6054312505224324    6.0849587705538859
  10.6464601158701804    1.2293473552224334    6.0849587705538859
   6.3878760933701813    8.6054312505224324    6.0849587705538859
   4.2585837627263388    4.9173894135137273    6.0849587705538859
  -0.0000002597736612   12.2934733088137271    6.0849587705538859
  12.7757518077263388    4.9173894135137273    6.0849587705538859
   8.5171677852263379   12.2934733088137271    6.0849587705538859
   6.3878758378551188    1.2293473552224334    6.0849587705538859
   2.1292918153551188    8.6054312505224324    6.0849587705538859
  14.9050438828551179    1.2293473552224334    6.0849587705538859
  10.6464598603551188    8.6054312505224324    6.0849587705538859
   4.2585841545161305    2.4586947030688080    9.5980083767353896
   0.0000001320161305    9.8347785983688070    9.5980083767353896
  12.7757521995161305    2.4586947030688080    9.5980083767353896
   8.5171681770161314    9.8347785983688070    9.5980083767353896
   2.1241625932062562    6.1437748085675272    9.5567481477147034
  -2.1344214292937438   13.5198587038675271    9.5567481477147034
  10.6413306382062558    6.1437748085675272    9.5567481477147034
   6.3827466157062567   13.5198587038675271    9.5567481477147034
  -0.0000005067715261    2.4646181660888407    9.5567481477147034
  -4.2585845292715261    9.8407020613888410    9.5567481477147034
   8.5171675382284739    2.4646181660888407    9.5567481477147034
   4.2585835157284739    9.8407020613888410    9.5567481477147034
  -2.1241625846890564    6.1437748085675272    9.5567481477147034
  -6.3827466071890564   13.5198587038675271    9.5567481477147034
   6.3930054603109436    6.1437748085675272    9.5567481477147034
   2.1344214378109436   13.5198587038675271    9.5567481477147034
   0.0000000000000000    0.0000000000000000   13.0827992986894799
  -4.2585840225000000    7.3760838952999999   13.0827992986894799
   8.5171680450000000    0.0000000000000000   13.0827992986894799
   4.2585840225000000    7.3760838952999999   13.0827992986894799
  -1.8332730751059296    3.8704955655025182   13.1326390366781709
  -6.0718570976059301   11.2465794608025185   13.1326390366781709
   6.7038949698940709    3.8704955655025182   13.1326390366781709
   2.4453109473940704   11.2465794608025185   13.1326390366781709
   0.0000000000000009    7.0111766595949563   13.1326390366781709
  -4.2585840224999991   14.3872605548949561   13.1326390366781709
   8.5171680450000018    7.0111766595949563   13.1326390366781709
   4.2585840225000009   14.3872605548949561   13.1326390366781709
   1.8132730751059198    3.8704955655025182   13.1326390366781709
  -2.4453109473940802   11.2465794608025185   13.1326390366781709
  10.3304411201059203    3.8704955655025182   13.1326390366781709
   6.0718570976059194   11.2465794608025185   13.1326390366781709
  -0.0000005067715256    2.4586949243513434   30.4247928826534206
  -4.2585845292715252    9.8347788196513442   30.4247928826534206
   8.5171675382284739    2.4586949243513434   30.4247928826534206
   4.2585835157284748    9.8347788196513442   30.4247928826534206
  -2.1292922625064632    6.1467364294362730   30.4247928826534206
  -6.3878762850064632   13.5228203247362728   30.4247928826534206
   6.3878757824935368    6.1467364294362730   30.4247928826534206
   2.1292917599935368   13.5228203247362728   30.4247928826534206
   2.1292922710236617    6.1467364294362730   30.4247928826534206
  -2.1292917514763383   13.5228203247362728   30.4247928826534206
  10.6464603160236617    6.1467364294362730   30.4247928826534206
   6.3878762935236617   13.5228203247362728   30.4247928826534206
   4.2585841545161305    2.4586947030688080   30.4247928826534206
   0.0000001320161305    9.8347785983688070   30.4247928826534206
  12.7757521995161305    2.4586947030688080   30.4247928826534206
   8.5171681770161314    9.8347785983688070   30.4247928826534206
   4.2585841545161305    2.4586947030688080   28.8662782181445650
   0.0000001320161305    9.8347785983688070   28.8662782181445650
  12.7757521995161305    2.4586947030688080   28.8662782181445650
   8.5171681770161314    9.8347785983688070   28.8662782181445650
  -2.1292922625064632    6.1467364294362730   28.8662782181445650
  -6.3878762850064632   13.5228203247362728   28.8662782181445650
   6.3878757824935368    6.1467364294362730   28.8662782181445650
   2.1292917599935368   13.5228203247362728   28.8662782181445650
   2.1292922710236617    6.1467364294362730   28.8662782181445650
  -2.1292917514763383   13.5228203247362728   28.8662782181445650
  10.6464603160236617    6.1467364294362730   28.8662782181445650
   6.3878762935236617   13.5228203247362728   28.8662782181445650
  -0.0000005067715256    2.4586949243513434   28.8662782181445650
  -4.2585845292715252    9.8347788196513442   28.8662782181445650
   8.5171675382284739    2.4586949243513434   28.8662782181445650
   4.2585835157284748    9.8347788196513442   28.8662782181445650
