New structure                           
   1.00000000000000     
     3.8201699257000001    0.0000000000000000    0.0000000000000000
    -1.9100849628000001    3.3083642024000000    0.0000000000000000
     0.0000000000000000    0.0000000000000000   46.7873382567999982
   Si   As   Ga   H    H 
     7     4     3     1     1
Selective dynamics
Direct
  0.3333334029999975  0.6666663290000017  0.1833334419999986   F   F   F
  0.0000000000000000  0.0000000000000000  0.2000001219999987   F   F   F
  0.0000000000000000  0.0000000000000000  0.2500000599999979   F   F   F
  0.6666665670000000  0.3333330450000034  0.2666667399999980   F F F
  0.6666665670000000  0.3333330450000034  0.3167933823498714   T   T   T
  0.3333334029999975  0.6666663290000017  0.3329401445185738   T   T   T
  0.3333334029999975  0.6666663290000017  0.3824421568410514   T   T   T
  0.0000000000000000  0.0000000000000000  0.4017361035373810   T   T   T
  0.6666665670000000  0.3333330450000034  0.4729654280487026   T   T   T
  0.3333334029999975  0.6666663290000017  0.5435336478578989   F F F
  0.0000000000000000  0.0000000000000000  0.6131766601867383   F F F
  0.0000000000000000  0.0000000000000000  0.4543233832676492   T   T   T
  0.6666665670000000  0.3333330450000034  0.5247755138225898   F F F
  0.3333334029999975  0.6666663290000017  0.5951258931965029   F F F
  0.0000000000000000  0.0000000000000000  0.6464381339465604   F F F
  0.3333334029999975  0.6666663290000017  0.1511577036121139   F F F
 
  0.00000000E+00  0.00000000E+00  0.00000000E+00
  0.00000000E+00  0.00000000E+00  0.00000000E+00
  0.00000000E+00  0.00000000E+00  0.00000000E+00
  0.00000000E+00  0.00000000E+00  0.00000000E+00
  0.00000000E+00  0.00000000E+00  0.00000000E+00
  0.00000000E+00  0.00000000E+00  0.00000000E+00
  0.00000000E+00  0.00000000E+00  0.00000000E+00
  0.00000000E+00  0.00000000E+00  0.00000000E+00
  0.00000000E+00  0.00000000E+00  0.00000000E+00
  0.00000000E+00  0.00000000E+00  0.00000000E+00
  0.00000000E+00  0.00000000E+00  0.00000000E+00
  0.00000000E+00  0.00000000E+00  0.00000000E+00
  0.00000000E+00  0.00000000E+00  0.00000000E+00
  0.00000000E+00  0.00000000E+00  0.00000000E+00
  0.00000000E+00  0.00000000E+00  0.00000000E+00
  0.00000000E+00  0.00000000E+00  0.00000000E+00
