Displacement Backward
1.00000000000000
  11.4605097771000004    0.0000000000000000    0.0000000000000000
  -5.7302548884000002    9.9250926071999999    0.0000000000000000
   0.0000000000000000    0.0000000000000000   46.7873382567999982
Si    As    Ga    H    H
54    36    36    9    9
Cartesian
   0.0000009111438477    2.2055750178090263    8.5776837646373583
  -1.9100840516561524    5.5139392202090267    8.5776837646373583
  -3.8201690144561526    8.8223034226090267    8.5776837646373583
   3.8201708368438476    2.2055750178090263    8.5776837646373583
   1.9100858740438478    5.5139392202090267    8.5776837646373583
   0.0000009112438477    8.8223034226090267    8.5776837646373583
   7.6403407625438478    2.2055750178090263    8.5776837646373583
   5.7302557997438477    5.5139392202090267    8.5776837646373583
   3.8201708369438476    8.8223034226090267    8.5776837646373583
   0.0000000000000000    0.0000000000000000    9.3574733594152057
  -1.9100849628000001    3.3083642024000000    9.3574733594152057
  -3.8201699256000001    6.6167284047999999    9.3574733594152057
   3.8201699257000001    0.0000000000000000    9.3574733594152057
   1.9100849629000001    3.3083642024000000    9.3574733594152057
   0.0000000001000000    6.6167284047999999    9.3574733594152057
   7.6403398514000003    0.0000000000000000    9.3574733594152057
   5.7302548886000002    3.3083642024000000    9.3574733594152057
   3.8201699258000001    6.6167284047999999    9.3574733594152057
   0.0000000000000000    0.0000000000000000   11.6968373714401981
  -1.9100849628000001    3.3083642024000000   11.6968373714401981
  -3.8201699256000001    6.6167284047999999   11.6968373714401981
   3.8201699257000001    0.0000000000000000   11.6968373714401981
   1.9100849629000001    3.3083642024000000   11.6968373714401981
   0.0000000001000000    6.6167284047999999   11.6968373714401981
   7.6403398514000003    0.0000000000000000   11.6968373714401981
   5.7302548886000002    3.3083642024000000   11.6968373714401981
   3.8201699258000001    6.6167284047999999   11.6968373714401981
   1.9100851328642219    1.1027871135549996   12.4324137382290996
   0.0000001700642218    4.4111513159549993   12.4524137382290991
  -1.9100847927357782    7.7195155183549993   12.4524137382290991
   5.7302550585642216    1.1027871135549996   12.4524137382290991
   3.8201700957642220    4.4111513159549993   12.4524137382290991
   1.9100851329642219    7.7195155183549993   12.4524137382290991
   9.5504249842642217    1.1027871135549996   12.4524137382290991
   7.6403400214642225    4.4111513159549993   12.4524137382290991
   5.7302550586642216    7.7195155183549993   12.4524137382290991
   1.9100851328642219    1.1027871135549996   14.7673714840463450
   0.0000001700642218    4.4111513159549993   14.7873714840463446
  -1.9100847927357782    7.7195155183549993   14.7873714840463446
   5.7302550585642216    1.1027871135549996   14.7873714840463446
   3.8201700957642220    4.4111513159549993   14.7873714840463446
   1.9100851329642219    7.7195155183549993   14.7873714840463446
   9.5504249842642217    1.1027871135549996   14.7873714840463446
   7.6403400214642225    4.4111513159549993   14.7873714840463446
   5.7302550586642216    7.7195155183549993   14.7873714840463446
   0.0000009111438477    2.2055750178090263   15.5112217713489553
  -1.9100840516561524    5.5139392202090267   15.5112217713489553
  -3.8201690144561526    8.8223034226090267   15.5112217713489553
   3.8201708368438476    2.2055750178090263   15.5112217713489553
   1.9100858740438478    5.5139392202090267   15.5112217713489553
   0.0000009112438477    8.8223034226090267   15.5112217713489553
   7.6403407625438478    2.2055750178090263   15.5112217713489553
   5.7302557997438477    5.5139392202090267   15.5112217713489553
   3.8201708369438476    8.8223034226090267   15.5112217713489553
   0.0000009111438477    2.2055750178090263   17.8805944533971548
  -1.9100840516561524    5.5139392202090267   17.8805944533971548
  -3.8201690144561526    8.8223034226090267   17.8805944533971548
   3.8201708368438476    2.2055750178090263   17.8805944533971548
   1.9100858740438478    5.5139392202090267   17.8805944533971548
   0.0000009112438477    8.8223034226090267   17.8805944533971548
   7.6403407625438478    2.2055750178090263   17.8805944533971548
   5.7302557997438477    5.5139392202090267   17.8805944533971548
   3.8201708369438476    8.8223034226090267   17.8805944533971548
   0.0000000000000000    0.0000000000000000   21.1675919600562850
  -1.9100849628000001    3.3083642024000000   21.1675919600562850
  -3.8201699256000001    6.6167284047999999   21.1675919600562850
   3.8201699257000001    0.0000000000000000   21.1675919600562850
   1.9100849629000001    3.3083642024000000   21.1675919600562850
   0.0000000001000000    6.6167284047999999   21.1675919600562850
   7.6403398514000003    0.0000000000000000   21.1675919600562850
   5.7302548886000002    3.3083642024000000   21.1675919600562850
   3.8201699258000001    6.6167284047999999   21.1675919600562850
   1.9100851328642219    1.1027871135549996   24.4671654428232763
   0.0000001700642218    4.4111513159549993   24.4671654428232763
  -1.9100847927357782    7.7195155183549993   24.4671654428232763
   5.7302550585642216    1.1027871135549996   24.4671654428232763
   3.8201700957642220    4.4111513159549993   24.4671654428232763
   1.9100851329642219    7.7195155183549993   24.4671654428232763
   9.5504249842642217    1.1027871135549996   24.4671654428232763
   7.6403400214642225    4.4111513159549993   24.4671654428232763
   5.7302550586642216    7.7195155183549993   24.4671654428232763
   0.0000009111438477    2.2055750178090263   27.7576989012969406
  -1.9100840516561524    5.5139392202090267   27.7576989012969406
  -3.8201690144561526    8.8223034226090267   27.7576989012969406
   3.8201708368438476    2.2055750178090263   27.7576989012969406
   1.9100858740438478    5.5139392202090267   27.7576989012969406
   0.0000009112438477    8.8223034226090267   27.7576989012969406
   7.6403407625438478    2.2055750178090263   27.7576989012969406
   5.7302557997438477    5.5139392202090267   27.7576989012969406
   3.8201708369438476    8.8223034226090267   27.7576989012969406
   0.0000000000000000    0.0000000000000000   18.7588912740560723
  -1.9100849628000001    3.3083642024000000   18.7588912740560723
  -3.8201699256000001    6.6167284047999999   18.7588912740560723
   3.8201699257000001    0.0000000000000000   18.7588912740560723
   1.9100849629000001    3.3083642024000000   18.7588912740560723
   0.0000000001000000    6.6167284047999999   18.7588912740560723
   7.6403398514000003    0.0000000000000000   18.7588912740560723
   5.7302548886000002    3.3083642024000000   18.7588912740560723
   3.8201699258000001    6.6167284047999999   18.7588912740560723
   1.9100851328642219    1.1027871135549996   22.0523925431874979
   0.0000001700642218    4.4111513159549993   22.0523925431874979
  -1.9100847927357782    7.7195155183549993   22.0523925431874979
   5.7302550585642216    1.1027871135549996   22.0523925431874979
   3.8201700957642220    4.4111513159549993   22.0523925431874979
   1.9100851329642219    7.7195155183549993   22.0523925431874979
   9.5504249842642217    1.1027871135549996   22.0523925431874979
   7.6403400214642225    4.4111513159549993   22.0523925431874979
   5.7302550586642216    7.7195155183549993   22.0523925431874979
   0.0000009111438477    2.2055750178090263   25.3489604285662473
  -1.9100840516561524    5.5139392202090267   25.3489604285662473
  -3.8201690144561526    8.8223034226090267   25.3489604285662473
   3.8201708368438476    2.2055750178090263   25.3489604285662473
   1.9100858740438478    5.5139392202090267   25.3489604285662473
   0.0000009112438477    8.8223034226090267   25.3489604285662473
   7.6403407625438478    2.2055750178090263   25.3489604285662473
   5.7302557997438477    5.5139392202090267   25.3489604285662473
   3.8201708369438476    8.8223034226090267   25.3489604285662473
   0.0000000000000000    0.0000000000000000   28.6106832183130848
  -1.9100849628000001    3.3083642024000000   28.6106832183130848
  -3.8201699256000001    6.6167284047999999   28.6106832183130848
   3.8201699257000001    0.0000000000000000   28.6106832183130848
   1.9100849629000001    3.3083642024000000   28.6106832183130848
   0.0000000001000000    6.6167284047999999   28.6106832183130848
   7.6403398514000003    0.0000000000000000   28.6106832183130848
   5.7302548886000002    3.3083642024000000   28.6106832183130848
   3.8201699258000001    6.6167284047999999   28.6106832183130848
   0.0000000000000000    0.0000000000000000   30.1663013364095569
  -1.9100849628000001    3.3083642024000000   30.1663013364095569
  -3.8201699256000001    6.6167284047999999   30.1663013364095569
   3.8201699257000001    0.0000000000000000   30.1663013364095569
   1.9100849629000001    3.3083642024000000   30.1663013364095569
   0.0000000001000000    6.6167284047999999   30.1663013364095569
   7.6403398514000003    0.0000000000000000   30.1663013364095569
   5.7302548886000002    3.3083642024000000   30.1663013364095569
   3.8201699258000001    6.6167284047999999   30.1663013364095569
   0.0000009111438477    2.2055750178090263    7.0727791239978020
  -1.9100840516561524    5.5139392202090267    7.0727791239978020
  -3.8201690144561526    8.8223034226090267    7.0727791239978020
   3.8201708368438476    2.2055750178090263    7.0727791239978020
   1.9100858740438478    5.5139392202090267    7.0727791239978020
   0.0000009112438477    8.8223034226090267    7.0727791239978020
   7.6403407625438478    2.2055750178090263    7.0727791239978020
   5.7302557997438477    5.5139392202090267    7.0727791239978020
   3.8201708369438476    8.8223034226090267    7.0727791239978020
