As1 In1                                 
   1.00000000000000     
     8.5171680450000000    0.0000000000000000    0.0000000000000000
    -4.2585840225000000    7.3760838952999999    0.0000000000000000
     0.0000000000000000    0.0000000000000000   31.2940731049000007
   In   As   H 
    23    16     4
Selective dynamics
Direct
  0.0778768542645078  0.7061464180002219  0.9957913300313577   T   T   T
  0.7930776098900066  0.8711056215822507  0.9958143962457938   T   T   T
  0.6281842752562278  0.4215925335134157  0.9958070431276993   T   T   T
  0.1939964450224041  0.1251421440295463  0.9956162325772032   T   T   T
  0.3740570046310323  0.5683449938191900  0.9956255699293084   T   T   T
  0.4997589376248647  0.9997319525868442  0.9969072987702554   T   T   T
  0.9309394014904657  0.3052184506166211  0.9956387702043409   T   T   T
  0.3326820426177174  0.6641023790244432  0.1109551378602455   F F F
  0.8358436379215808  0.1685251661625361  0.1109508815406534   F F F
  0.8333138986279208  0.6666228437982449  0.1099801874621268   F F F
  0.3314053174387090  0.1672620467573096  0.1109566814713420   F F F
  0.6666666710000015  0.3333333420000031  0.2222222210000027   F   F   F
  0.1666666140000004  0.8333333389999993  0.2222222210000027   F   F   F
  0.1666666309999982  0.3333333739999986  0.2222222210000027   F   F   F
  0.6666666699999979  0.8333333389999993  0.2222222210000027   F   F   F
  0.0000000000000000  0.0000000000000000  0.3333333539999970   F   F   F
  0.4999999979999998  0.4999999970000033  0.3333333539999970   F   F   F
  0.5000000000000000  0.0000000000000000  0.3333333539999970   F   F   F
  0.9999999979999998  0.4999999970000033  0.3333333539999970   F   F   F
  0.3333333420000031  0.6666666839999991  0.4444444410000017   F   F   F
  0.8333333360000026  0.1666666710000015  0.4444444410000017   F   F   F
  0.8333333420000031  0.6666666839999991  0.4444444410000017   F   F   F
  0.3333333360000026  0.1666666710000015  0.4444444410000017   F   F   F
  0.9979356168617164  0.0002462109434967  0.0771649561877591   T   T   T
  0.0023177912555597  0.5020096518760758  0.0771632966203487   T   T   T
  0.4999716460413802  0.9999621096584795  0.0824639435181073   T   T   T
  0.4996803058636051  0.4976204403971145  0.0771656512962594   T   T   T
  0.3331798608807706  0.6658689771791212  0.1944141140574671   F F F
  0.3326904129037958  0.1668158866402233  0.1944152162582995   F F F
  0.8333305998232876  0.6666641272757644  0.1937511496192355   F F F
  0.8341270322368367  0.1673075073756799  0.1944111270340917   F F F
  0.6666666710000015  0.3333333420000031  0.3055555440000006   F   F   F
  0.6666666699999979  0.8333333389999993  0.3055555440000006   F   F   F
  0.1666666309999982  0.3333333739999986  0.3055555440000006   F   F   F
  0.1666666140000004  0.8333333389999993  0.3055555440000006   F   F   F
  0.0000000000000000  0.0000000000000000  0.4166666619999972   F   F   F
  0.9999999979999998  0.4999999970000033  0.4166666619999972   F   F   F
  0.5000000000000000  0.0000000000000000  0.4166666619999972   F   F   F
  0.4999999979999998  0.4999999970000033  0.4166666619999972   F   F   F
  0.3333333420000031  0.6666666839999991  0.5000708230000015   F   F   F
  0.3333333360000026  0.1666666710000015  0.5000708230000015   F   F   F
  0.8333333420000031  0.6666666839999991  0.5000708230000015   F   F   F
  0.8333333360000026  0.1666666710000015  0.5000708230000015   F   F   F
 
  0.00000000E+00  0.00000000E+00  0.00000000E+00
  0.00000000E+00  0.00000000E+00  0.00000000E+00
  0.00000000E+00  0.00000000E+00  0.00000000E+00
  0.00000000E+00  0.00000000E+00  0.00000000E+00
  0.00000000E+00  0.00000000E+00  0.00000000E+00
  0.00000000E+00  0.00000000E+00  0.00000000E+00
  0.00000000E+00  0.00000000E+00  0.00000000E+00
  0.00000000E+00  0.00000000E+00  0.00000000E+00
  0.00000000E+00  0.00000000E+00  0.00000000E+00
  0.00000000E+00  0.00000000E+00  0.00000000E+00
  0.00000000E+00  0.00000000E+00  0.00000000E+00
  0.00000000E+00  0.00000000E+00  0.00000000E+00
  0.00000000E+00  0.00000000E+00  0.00000000E+00
  0.00000000E+00  0.00000000E+00  0.00000000E+00
  0.00000000E+00  0.00000000E+00  0.00000000E+00
  0.00000000E+00  0.00000000E+00  0.00000000E+00
  0.00000000E+00  0.00000000E+00  0.00000000E+00
  0.00000000E+00  0.00000000E+00  0.00000000E+00
  0.00000000E+00  0.00000000E+00  0.00000000E+00
  0.00000000E+00  0.00000000E+00  0.00000000E+00
  0.00000000E+00  0.00000000E+00  0.00000000E+00
  0.00000000E+00  0.00000000E+00  0.00000000E+00
  0.00000000E+00  0.00000000E+00  0.00000000E+00
  0.00000000E+00  0.00000000E+00  0.00000000E+00
  0.00000000E+00  0.00000000E+00  0.00000000E+00
  0.00000000E+00  0.00000000E+00  0.00000000E+00
  0.00000000E+00  0.00000000E+00  0.00000000E+00
  0.00000000E+00  0.00000000E+00  0.00000000E+00
  0.00000000E+00  0.00000000E+00  0.00000000E+00
  0.00000000E+00  0.00000000E+00  0.00000000E+00
  0.00000000E+00  0.00000000E+00  0.00000000E+00
  0.00000000E+00  0.00000000E+00  0.00000000E+00
  0.00000000E+00  0.00000000E+00  0.00000000E+00
  0.00000000E+00  0.00000000E+00  0.00000000E+00
  0.00000000E+00  0.00000000E+00  0.00000000E+00
  0.00000000E+00  0.00000000E+00  0.00000000E+00
  0.00000000E+00  0.00000000E+00  0.00000000E+00
  0.00000000E+00  0.00000000E+00  0.00000000E+00
  0.00000000E+00  0.00000000E+00  0.00000000E+00
  0.00000000E+00  0.00000000E+00  0.00000000E+00
  0.00000000E+00  0.00000000E+00  0.00000000E+00
  0.00000000E+00  0.00000000E+00  0.00000000E+00
  0.00000000E+00  0.00000000E+00  0.00000000E+00
