Copper                                  
   1.00000000000000     
     2.5712952614000000    0.0000000000000000    0.0000000000000000
     1.2856476307000000    2.2268070170000001    0.0000000000000000
     0.0000000000000000    0.0000000000000000   27.7901687622000004
   Cu
     7
Selective dynamics
Direct
  0.0000000000000000  0.0000000000000000  0.2266399005668163   F   F   F
  0.6666666268421011  0.6666666269985058  0.3021865340890884   F   F   F
  0.3333333135333163  0.3333333132747143  0.3777871843380708   F F F
 -0.0000000000000000 -0.0000000000000000  0.4536266754151306   F F F
  0.6666666268421011  0.6666666269985058  0.5294662018634133   T   T   T
  0.3333333135333163  0.3333333132747143  0.6051030650602642   T   T   T
 -0.0000000000000000 -0.0000000000000000  0.6801090241022657   T   T   T
 
  0.00000000E+00  0.00000000E+00  0.00000000E+00
  0.00000000E+00  0.00000000E+00  0.00000000E+00
  0.00000000E+00  0.00000000E+00  0.00000000E+00
  0.00000000E+00  0.00000000E+00  0.00000000E+00
  0.00000000E+00  0.00000000E+00  0.00000000E+00
  0.00000000E+00  0.00000000E+00  0.00000000E+00
  0.00000000E+00  0.00000000E+00  0.00000000E+00
