New structure                           
   1.00000000000000     
     3.8201699257000001    0.0000000000000000    0.0000000000000000
    -1.9100849628000001    3.3083642024000000    0.0000000000000000
     0.0000000000000000    0.0000000000000000   46.7873382567999982
   Si   As   Ga   H    H 
     6     4     4     1     1
Selective dynamics
Direct
  0.3333334029999975  0.6666663290000017  0.1833334419999986   F   F   F
  0.0000000000000000  0.0000000000000000  0.2000001219999987   F   F   F
  0.0000000000000000  0.0000000000000000  0.2500000599999979   F F F
  0.6666665670000000  0.3333330450000034  0.2661492233193942   T   T   T
  0.6666665670000000  0.3333330450000034  0.3160549848525989   T   T   T
  0.3333334029999975  0.6666663290000017  0.3315260570330602   T   T   T
  0.3333334029999975  0.6666663290000017  0.3821673794575911   T   T   T
 -0.0000000000000000 -0.0000000000000000  0.4524213761397256   T   T   T
  0.6666665670000000  0.3333330450000034  0.5229441629812582   F F F
  0.3333334029999975  0.6666663290000017  0.5932737346361583   F F F
  0.0000000000000000  0.0000000000000000  0.4009394843343046   T   T   T
  0.6666665670000000  0.3333330450000034  0.4713324879083592   F F F
  0.3333334029999975  0.6666663290000017  0.5417910352034627   F F F
 -0.0000000000000000 -0.0000000000000000  0.6115048276796309   F F F
 -0.0000000000000000 -0.0000000000000000  0.6447535264954987   F F F
  0.3333334029999975  0.6666663290000017  0.1511686577504728   F F F
 
  0.00000000E+00  0.00000000E+00  0.00000000E+00
  0.00000000E+00  0.00000000E+00  0.00000000E+00
  0.00000000E+00  0.00000000E+00  0.00000000E+00
  0.00000000E+00  0.00000000E+00  0.00000000E+00
  0.00000000E+00  0.00000000E+00  0.00000000E+00
  0.00000000E+00  0.00000000E+00  0.00000000E+00
  0.00000000E+00  0.00000000E+00  0.00000000E+00
  0.00000000E+00  0.00000000E+00  0.00000000E+00
  0.00000000E+00  0.00000000E+00  0.00000000E+00
  0.00000000E+00  0.00000000E+00  0.00000000E+00
  0.00000000E+00  0.00000000E+00  0.00000000E+00
  0.00000000E+00  0.00000000E+00  0.00000000E+00
  0.00000000E+00  0.00000000E+00  0.00000000E+00
  0.00000000E+00  0.00000000E+00  0.00000000E+00
  0.00000000E+00  0.00000000E+00  0.00000000E+00
  0.00000000E+00  0.00000000E+00  0.00000000E+00
