Displacement Forward
1.00000000000000
  11.4605097771000004    0.0000000000000000    0.0000000000000000
  -5.7302548884000002    9.9250926071999999    0.0000000000000000
   0.0000000000000000    0.0000000000000000   46.7873382567999982
Si    As    Ga    H    H
54    36    36    9    9
Cartesian
   0.0000009111438477    2.2055750178090263    8.5776837646373583
  -1.9100840516561524    5.5139392202090267    8.5776837646373583
  -3.8201690144561526    8.8223034226090267    8.5776837646373583
   3.8201708368438476    2.2055750178090263    8.5776837646373583
   1.9100858740438478    5.5139392202090267    8.5776837646373583
   0.0000009112438477    8.8223034226090267    8.5776837646373583
   7.6403407625438478    2.2055750178090263    8.5776837646373583
   5.7302557997438477    5.5139392202090267    8.5776837646373583
   3.8201708369438476    8.8223034226090267    8.5776837646373583
   0.0000000000000000    0.0000000000000000    9.3574733594152057
  -1.9100849628000001    3.3083642024000000    9.3574733594152057
  -3.8201699256000001    6.6167284047999999    9.3574733594152057
   3.8201699257000001    0.0000000000000000    9.3574733594152057
   1.9100849629000001    3.3083642024000000    9.3574733594152057
   0.0000000001000000    6.6167284047999999    9.3574733594152057
   7.6403398514000003    0.0000000000000000    9.3574733594152057
   5.7302548886000002    3.3083642024000000    9.3574733594152057
   3.8201699258000001    6.6167284047999999    9.3574733594152057
   0.0000000000000000    0.0000000000000000   11.6968373714401981
  -1.9100849628000001    3.3083642024000000   11.6968373714401981
  -3.8201699256000001    6.6167284047999999   11.6968373714401981
   3.8201699257000001    0.0000000000000000   11.6968373714401981
   1.9100849629000001    3.3083642024000000   11.6968373714401981
   0.0000000001000000    6.6167284047999999   11.6968373714401981
   7.6403398514000003    0.0000000000000000   11.6968373714401981
   5.7302548886000002    3.3083642024000000   11.6968373714401981
   3.8201699258000001    6.6167284047999999   11.6968373714401981
   1.9100851328642219    1.1027871135549996   12.4643454032715670
   0.0000001700642218    4.4111513159549993   12.4843454032715666
  -1.9100847927357782    7.7195155183549993   12.4843454032715666
   5.7302550585642216    1.1027871135549996   12.4843454032715666
   3.8201700957642220    4.4111513159549993   12.4843454032715666
   1.9100851329642219    7.7195155183549993   12.4843454032715666
   9.5504249842642217    1.1027871135549996   12.4843454032715666
   7.6403400214642225    4.4111513159549993   12.4843454032715666
   5.7302550586642216    7.7195155183549993   12.4843454032715666
   1.9100851328642219    1.1027871135549996   14.8416855728451296
   0.0000001700642218    4.4111513159549993   14.8216855728451300
  -1.9100847927357782    7.7195155183549993   14.8216855728451300
   5.7302550585642216    1.1027871135549996   14.8216855728451300
   3.8201700957642220    4.4111513159549993   14.8216855728451300
   1.9100851329642219    7.7195155183549993   14.8216855728451300
   9.5504249842642217    1.1027871135549996   14.8216855728451300
   7.6403400214642225    4.4111513159549993   14.8216855728451300
   5.7302550586642216    7.7195155183549993   14.8216855728451300
   0.0000009111438477    2.2055750178090263   15.6116667660923429
  -1.9100840516561524    5.5139392202090267   15.6116667660923429
  -3.8201690144561526    8.8223034226090267   15.6116667660923429
   3.8201708368438476    2.2055750178090263   15.6116667660923429
   1.9100858740438478    5.5139392202090267   15.6116667660923429
   0.0000009112438477    8.8223034226090267   15.6116667660923429
   7.6403407625438478    2.2055750178090263   15.6116667660923429
   5.7302557997438477    5.5139392202090267   15.6116667660923429
   3.8201708369438476    8.8223034226090267   15.6116667660923429
   0.0000000000000000    0.0000000000000000   18.9460438713110300
  -1.9100849628000001    3.3083642024000000   18.9460438713110300
  -3.8201699256000001    6.6167284047999999   18.9460438713110300
   3.8201699257000001    0.0000000000000000   18.9460438713110300
   1.9100849629000001    3.3083642024000000   18.9460438713110300
   0.0000000001000000    6.6167284047999999   18.9460438713110300
   7.6403398514000003    0.0000000000000000   18.9460438713110300
   5.7302548886000002    3.3083642024000000   18.9460438713110300
   3.8201699258000001    6.6167284047999999   18.9460438713110300
   1.9100851328642219    1.1027871135549996   22.2556366036846569
   0.0000001700642218    4.4111513159549993   22.2556366036846569
  -1.9100847927357782    7.7195155183549993   22.2556366036846569
   5.7302550585642216    1.1027871135549996   22.2556366036846569
   3.8201700957642220    4.4111513159549993   22.2556366036846569
   1.9100851329642219    7.7195155183549993   22.2556366036846569
   9.5504249842642217    1.1027871135549996   22.2556366036846569
   7.6403400214642225    4.4111513159549993   22.2556366036846569
   5.7302550586642216    7.7195155183549993   22.2556366036846569
   0.0000009111438477    2.2055750178090263   25.5595493140577581
  -1.9100840516561524    5.5139392202090267   25.5595493140577581
  -3.8201690144561526    8.8223034226090267   25.5595493140577581
   3.8201708368438476    2.2055750178090263   25.5595493140577581
   1.9100858740438478    5.5139392202090267   25.5595493140577581
   0.0000009112438477    8.8223034226090267   25.5595493140577581
   7.6403407625438478    2.2055750178090263   25.5595493140577581
   5.7302557997438477    5.5139392202090267   25.5595493140577581
   3.8201708369438476    8.8223034226090267   25.5595493140577581
   0.0000000000000000    0.0000000000000000   28.8197335176639697
  -1.9100849628000001    3.3083642024000000   28.8197335176639697
  -3.8201699256000001    6.6167284047999999   28.8197335176639697
   3.8201699257000001    0.0000000000000000   28.8197335176639697
   1.9100849629000001    3.3083642024000000   28.8197335176639697
   0.0000000001000000    6.6167284047999999   28.8197335176639697
   7.6403398514000003    0.0000000000000000   28.8197335176639697
   5.7302548886000002    3.3083642024000000   28.8197335176639697
   3.8201699258000001    6.6167284047999999   28.8197335176639697
   0.0000009111438477    2.2055750178090263   17.9939901281170478
  -1.9100840516561524    5.5139392202090267   17.9939901281170478
  -3.8201690144561526    8.8223034226090267   17.9939901281170478
   3.8201708368438476    2.2055750178090263   17.9939901281170478
   1.9100858740438478    5.5139392202090267   17.9939901281170478
   0.0000009112438477    8.8223034226090267   17.9939901281170478
   7.6403407625438478    2.2055750178090263   17.9939901281170478
   5.7302557997438477    5.5139392202090267   17.9939901281170478
   3.8201708369438476    8.8223034226090267   17.9939901281170478
   0.0000000000000000    0.0000000000000000   21.3427266600375738
  -1.9100849628000001    3.3083642024000000   21.3427266600375738
  -3.8201699256000001    6.6167284047999999   21.3427266600375738
   3.8201699257000001    0.0000000000000000   21.3427266600375738
   1.9100849629000001    3.3083642024000000   21.3427266600375738
   0.0000000001000000    6.6167284047999999   21.3427266600375738
   7.6403398514000003    0.0000000000000000   21.3427266600375738
   5.7302548886000002    3.3083642024000000   21.3427266600375738
   3.8201699258000001    6.6167284047999999   21.3427266600375738
   1.9100851328642219    1.1027871135549996   24.6633313202037208
   0.0000001700642218    4.4111513159549993   24.6633313202037208
  -1.9100847927357782    7.7195155183549993   24.6633313202037208
   5.7302550585642216    1.1027871135549996   24.6633313202037208
   3.8201700957642220    4.4111513159549993   24.6633313202037208
   1.9100851329642219    7.7195155183549993   24.6633313202037208
   9.5504249842642217    1.1027871135549996   24.6633313202037208
   7.6403400214642225    4.4111513159549993   24.6633313202037208
   5.7302550586642216    7.7195155183549993   24.6633313202037208
   0.0000009111438477    2.2055750178090263   27.9685985590556427
  -1.9100840516561524    5.5139392202090267   27.9685985590556427
  -3.8201690144561526    8.8223034226090267   27.9685985590556427
   3.8201708368438476    2.2055750178090263   27.9685985590556427
   1.9100858740438478    5.5139392202090267   27.9685985590556427
   0.0000009112438477    8.8223034226090267   27.9685985590556427
   7.6403407625438478    2.2055750178090263   27.9685985590556427
   5.7302557997438477    5.5139392202090267   27.9685985590556427
   3.8201708369438476    8.8223034226090267   27.9685985590556427
   0.0000000000000000    0.0000000000000000   30.3762059285947110
  -1.9100849628000001    3.3083642024000000   30.3762059285947110
  -3.8201699256000001    6.6167284047999999   30.3762059285947110
   3.8201699257000001    0.0000000000000000   30.3762059285947110
   1.9100849629000001    3.3083642024000000   30.3762059285947110
   0.0000000001000000    6.6167284047999999   30.3762059285947110
   7.6403398514000003    0.0000000000000000   30.3762059285947110
   5.7302548886000002    3.3083642024000000   30.3762059285947110
   3.8201699258000001    6.6167284047999999   30.3762059285947110
   0.0000009111438477    2.2055750178090263    7.0722186265803417
  -1.9100840516561524    5.5139392202090267    7.0722186265803417
  -3.8201690144561526    8.8223034226090267    7.0722186265803417
   3.8201708368438476    2.2055750178090263    7.0722186265803417
   1.9100858740438478    5.5139392202090267    7.0722186265803417
   0.0000009112438477    8.8223034226090267    7.0722186265803417
   7.6403407625438478    2.2055750178090263    7.0722186265803417
   5.7302557997438477    5.5139392202090267    7.0722186265803417
   3.8201708369438476    8.8223034226090267    7.0722186265803417
