ISTART=0
ENCUT=500
LREAL=F
PREC=A

ADDGRID=T
LCHARG=F
LWAVE=F

#LDIPOL=T
#IDIPOL=3
NPAR=4

NELMIN=5
IBRION=-1
#ISIF=2
EDIFF=1e-06
#EDIFFG=-1e-03
#NSW=100

ISMEAR=0
SIGMA=0.05
