New structure                           
   1.00000000000000     
     3.8201699257000001    0.0000000000000000    0.0000000000000000
    -1.9100849628000001    3.3083642024000000    0.0000000000000000
     0.0000000000000000    0.0000000000000000   46.7873382567999982
   Si   As   Ga   H    H 
     6     4     4     1     1
Selective dynamics
Direct
  0.3333334029999975  0.6666663290000017  0.1833334419999986   F   F   F
  0.0000000000000000  0.0000000000000000  0.2000001219999987   F   F   F
  0.0000000000000000  0.0000000000000000  0.2500000599999979   F F F
  0.6666665670000000  0.3333330450000034  0.2668317085009022   T   T   T
  0.6666665670000000  0.3333330450000034  0.3167883903011082   T   T   T
  0.3333334029999975  0.6666663290000017  0.3336728984325875   T   T   T
  0.0000000000000000 -0.0000000000000000  0.4049395536741704   T   T   T
  0.6666665670000000  0.3333330450000034  0.4756764849825595   F F F
  0.3333334029999975  0.6666663290000017  0.5462920154544798   F F F
 -0.0000000000000000 -0.0000000000000000  0.6159729232614628   F F F
  0.3333334029999975  0.6666663290000017  0.3845910196761798   T   T   T
 -0.0000000000000000  0.0000000000000000  0.4561645833087257   T   T   T
  0.6666665670000000  0.3333330450000034  0.5271368758965294   F F F
  0.3333334029999975  0.6666663290000017  0.5977813571172909   F F F
  0.0000000000000000 -0.0000000000000000  0.6492398811377110   F F F
  0.3333334029999975  0.6666663290000017  0.1511566780688251   F F F
 
  0.00000000E+00  0.00000000E+00  0.00000000E+00
  0.00000000E+00  0.00000000E+00  0.00000000E+00
  0.00000000E+00  0.00000000E+00  0.00000000E+00
  0.00000000E+00  0.00000000E+00  0.00000000E+00
  0.00000000E+00  0.00000000E+00  0.00000000E+00
  0.00000000E+00  0.00000000E+00  0.00000000E+00
  0.00000000E+00  0.00000000E+00  0.00000000E+00
  0.00000000E+00  0.00000000E+00  0.00000000E+00
  0.00000000E+00  0.00000000E+00  0.00000000E+00
  0.00000000E+00  0.00000000E+00  0.00000000E+00
  0.00000000E+00  0.00000000E+00  0.00000000E+00
  0.00000000E+00  0.00000000E+00  0.00000000E+00
  0.00000000E+00  0.00000000E+00  0.00000000E+00
  0.00000000E+00  0.00000000E+00  0.00000000E+00
  0.00000000E+00  0.00000000E+00  0.00000000E+00
  0.00000000E+00  0.00000000E+00  0.00000000E+00
