Backward Displacement
1.00000000000000
  17.0343360900000000    0.0000000000000000    0.0000000000000000
  -8.5171680450000000   14.7521677905999997    0.0000000000000000
   0.0000000000000000    0.0000000000000000   31.2940731049000007
In    As    H
92    64    16
Cartesian
  -2.5692622533923450    5.8927196367618944   31.1589620038914816
  -6.8278462758923446   13.2688035320618951   31.1589620038914816
   5.9479057916076545    5.8927196367618944   31.1589620038914816
   1.6893217691076550   13.2688035320618951   31.1589620038914816
   2.5692622619096488    5.8927196367618944   31.1589620038914816
  -1.6893217605903512   13.2688035320618951   31.1589620038914816
  11.0864303069096479    5.8927196367618944   31.1589620038914816
   6.8278462844096488   13.2688035320618951   31.1589620038914816
   4.2585841545161820    2.9667282884174764   31.1589620038914816
   0.0000001320161820   10.3428121837174771   31.1589620038914816
  12.7757521995161820    2.9667282884174764   31.1589620038914816
   8.5171681770161811   10.3428121837174771   31.1589620038914816
   0.0000000000000303    0.7852832332328709   31.1345499508267025
  -4.2585840224999698    8.1613671285328699   31.1345499508267025
   8.5171680450000302    0.7852832332328709   31.1345499508267025
   4.2585840225000302    8.1613671285328699   31.1345499508267025
   1.4492167821070405    3.2954003310335453   31.1345499508267025
  -2.8093672403929597   10.6714842263335452   31.1345499508267025
   9.9663848271070403    3.2954003310335453   31.1345499508267025
   5.7078008046070403   10.6714842263335452   31.1345499508267025
   4.2585840225000000    0.0000000000000000   31.1354355580590507
   0.0000000000000000    7.3760838952999999   31.1354355580590507
  12.7757520675000009    0.0000000000000000   31.1354355580590507
   8.5171680450000000    7.3760838952999999   31.1354355580590507
  -1.4492167821069819    3.2954003310335453   31.1345499508267025
  -5.7078008046069817   10.6714842263335452   31.1345499508267025
   7.0679512628930183    3.2954003310335453   31.1345499508267025
   2.8093672403930183   10.6714842263335452   31.1345499508267025
  -0.0000000042586299    4.9234254710470404    3.4783065644671511
  -4.2585840267586299   12.2995093663470403    3.4783065644671511
   8.5171680407413710    4.9234254710470404    3.4783065644671511
   4.2585840182413701   12.2995093663470403    3.4783065644671511
   6.3826484586925716    1.2263293264557991    3.4783065644671511
   2.1240644361925716    8.6024132217557998    3.4783065644671511
  14.8998165036925716    1.2263293264557991    3.4783065644671511
  10.6412324811925707    8.6024132217557998    3.4783065644671511
   4.2585837627263388    4.9173894135137273    3.4270368294973665
  -0.0000002597736612   12.2934733088137271    3.4270368294973665
  12.7757518077263388    4.9173894135137273    3.4270368294973665
   8.5171677852263379   12.2934733088137271    3.4270368294973665
   2.1345194500326716    1.2263293264557991    3.4783065644671511
  -2.1240645724673284    8.6024132217557998    3.4783065644671511
  10.6516874950326716    1.2263293264557991    3.4783065644671511
   6.3931034725326716    8.6024132217557998    3.4783065644671511
   4.2585841545161305    2.4586947030688080    6.9542385233894448
   0.0000001320161305    9.8347785983688070    6.9542385233894448
  12.7757521995161305    2.4586947030688080    6.9542385233894448
   8.5171681770161314    9.8347785983688070    6.9542385233894448
  -2.1292922625064632    6.1467364294362730    6.9542385233894448
  -6.3878762850064632   13.5228203247362728    6.9542385233894448
   6.3878757824935368    6.1467364294362730    6.9542385233894448
   2.1292917599935368   13.5228203247362728    6.9542385233894448
  -0.0000005067715256    2.4586949243513434    6.9542385233894448
  -4.2585845292715252    9.8347788196513442    6.9542385233894448
   8.5171675382284739    2.4586949243513434    6.9542385233894448
   4.2585835157284748    9.8347788196513442    6.9542385233894448
   2.1292922710236617    6.1467364294362730    6.9542385233894448
  -2.1292917514763383   13.5228203247362728    6.9542385233894448
  10.6464603160236617    6.1467364294362730    6.9542385233894448
   6.3878762935236617   13.5228203247362728    6.9542385233894448
   0.0000000000000000    0.0000000000000000   10.4313580041426945
  -4.2585840225000000    7.3760838952999999   10.4313580041426945
   8.5171680450000000    0.0000000000000000   10.4313580041426945
   4.2585840225000000    7.3760838952999999   10.4313580041426945
   2.1292920112500000    3.6880419476499999   10.4313580041426945
  -2.1292920112500000   11.0641258429500002   10.4313580041426945
  10.6464600562499996    3.6880419476499999   10.4313580041426945
   6.3878760337500005   11.0641258429500002   10.4313580041426945
   4.2585840225000000    0.0000000000000000   10.4313580041426945
   0.0000000000000000    7.3760838952999999   10.4313580041426945
  12.7757520675000009    0.0000000000000000   10.4313580041426945
   8.5171680450000000    7.3760838952999999   10.4313580041426945
  -2.1292920112500000    3.6880419476499999   10.4313580041426945
  -6.3878760337500005   11.0641258429500002   10.4313580041426945
   6.3878760337500005    3.6880419476499999   10.4313580041426945
   2.1292920112500000   11.0641258429500002   10.4313580041426945
  -0.0000000042585993    4.9173894135137273   13.9084770467788861
  -4.2585840267585997   12.2934733088137271   13.9084770467788861
   8.5171680407414012    4.9173894135137273   13.9084770467788861
   4.2585840182414003   12.2934733088137271   13.9084770467788861
   6.3878758378551188    1.2293473552224334   13.9084770467788861
   2.1292918153551188    8.6054312505224324   13.9084770467788861
  14.9050438828551179    1.2293473552224334   13.9084770467788861
  10.6464598603551188    8.6054312505224324   13.9084770467788861
   4.2585837627263388    4.9173894135137273   13.9084770467788861
  -0.0000002597736612   12.2934733088137271   13.9084770467788861
  12.7757518077263388    4.9173894135137273   13.9084770467788861
   8.5171677852263379   12.2934733088137271   13.9084770467788861
   2.1292920708701812    1.2293473552224334   13.9084770467788861
  -2.1292919516298188    8.6054312505224324   13.9084770467788861
  10.6464601158701804    1.2293473552224334   13.9084770467788861
   6.3878760933701813    8.6054312505224324   13.9084770467788861
  -0.0141421356237612    0.0178219068055745    2.4665692567688806
  -4.2585840225000302    7.3939058021055741    2.4807113923926116
   8.5171680449999698    0.0178219068055745    2.4807113923926116
   4.2585840224999698    7.3939058021055741    2.4807113923926116
  -2.1138577872125368    3.6791309942472346    2.4807125502733007
  -6.3724418097125373   11.0552148895472335    2.4807125502733007
   6.4033102577874637    3.6791309942472346    2.4807125502733007
   2.1447262352874632   11.0552148895472335    2.4807125502733007
   4.2585840225000000    0.0000000000000000    2.5330939333726290
   0.0000000000000000    7.3760838952999999    2.5330939333726290
  12.7757520675000009    0.0000000000000000    2.5330939333726290
   8.5171680450000000    7.3760838952999999    2.5330939333726290
   2.1138577872125381    3.6791309942472346    2.4807125502733007
  -2.1447262352874619   11.0552148895472335    2.4807125502733007
  10.6310258322125382    3.6791309942472346    2.4807125502733007
   6.3724418097125382   11.0552148895472335    2.4807125502733007
  -0.0000000042586294    4.9155198500600514    6.0876275717222530
  -4.2585840267586299   12.2916037453600513    6.0876275717222530
   8.5171680407413710    4.9155198500600514    6.0876275717222530
   4.2585840182413701   12.2916037453600513    6.0876275717222530
   2.1276729814252713    1.2302821369492993    6.0876275717222530
  -2.1309110410747287    8.6063660322492996    6.0876275717222530
  10.6448410264252722    1.2302821369492993    6.0876275717222530
   6.3862570039252713    8.6063660322492996    6.0876275717222530
   4.2585837627263388    4.9173894135137273    6.0531687743310751
  -0.0000002597736612   12.2934733088137271    6.0531687743310751
  12.7757518077263388    4.9173894135137273    6.0531687743310751
   8.5171677852263379   12.2934733088137271    6.0531687743310751
   6.3894949272999657    1.2302821369492993    6.0876275717222530
   2.1309109047999657    8.6063660322492996    6.0876275717222530
  14.9066629722999657    1.2302821369492993    6.0876275717222530
  10.6480789497999666    8.6063660322492996    6.0876275717222530
   4.2585841545161305    2.4586947030688080    9.5620777818961145
   0.0000001320161305    9.8347785983688070    9.5620777818961145
  12.7757521995161305    2.4586947030688080    9.5620777818961145
   8.5171681770161314    9.8347785983688070    9.5620777818961145
   2.1292922710236617    6.1467364294362730    9.5620777818961145
  -2.1292917514763383   13.5228203247362728    9.5620777818961145
  10.6464603160236617    6.1467364294362730    9.5620777818961145
   6.3878762935236617   13.5228203247362728    9.5620777818961145
  -0.0000005067715256    2.4586949243513434    9.5620777818961145
  -4.2585845292715252    9.8347788196513442    9.5620777818961145
   8.5171675382284739    2.4586949243513434    9.5620777818961145
   4.2585835157284748    9.8347788196513442    9.5620777818961145
  -2.1292922625064632    6.1467364294362730    9.5620777818961145
  -6.3878762850064632   13.5228203247362728    9.5620777818961145
   6.3878757824935368    6.1467364294362730    9.5620777818961145
   2.1292917599935368   13.5228203247362728    9.5620777818961145
   0.0000000000000000    0.0000000000000000   13.0391968245323060
  -4.2585840225000000    7.3760838952999999   13.0391968245323060
   8.5171680450000000    0.0000000000000000   13.0391968245323060
   4.2585840225000000    7.3760838952999999   13.0391968245323060
  -2.1292920112500000    3.6880419476499999   13.0391968245323060
  -6.3878760337500005   11.0641258429500002   13.0391968245323060
   6.3878760337500005    3.6880419476499999   13.0391968245323060
   2.1292920112500000   11.0641258429500002   13.0391968245323060
   4.2585840225000000    0.0000000000000000   13.0391968245323060
   0.0000000000000000    7.3760838952999999   13.0391968245323060
  12.7757520675000009    0.0000000000000000   13.0391968245323060
   8.5171680450000000    7.3760838952999999   13.0391968245323060
   2.1292920112500000    3.6880419476499999   13.0391968245323060
  -2.1292920112500000   11.0641258429500002   13.0391968245323060
  10.6464600562499996    3.6880419476499999   13.0391968245323060
   6.3878760337500005   11.0641258429500002   13.0391968245323060
  -0.0000000042585993    4.9173894135137273   15.6492520892572085
  -4.2585840267585997   12.2934733088137271   15.6492520892572085
   8.5171680407414012    4.9173894135137273   15.6492520892572085
   4.2585840182414003   12.2934733088137271   15.6492520892572085
   2.1292920708701812    1.2293473552224334   15.6492520892572085
  -2.1292919516298188    8.6054312505224324   15.6492520892572085
  10.6464601158701804    1.2293473552224334   15.6492520892572085
   6.3878760933701813    8.6054312505224324   15.6492520892572085
   4.2585837627263388    4.9173894135137273   15.6492520892572085
  -0.0000002597736612   12.2934733088137271   15.6492520892572085
  12.7757518077263388    4.9173894135137273   15.6492520892572085
   8.5171677852263379   12.2934733088137271   15.6492520892572085
   6.3878758378551188    1.2293473552224334   15.6492520892572085
   2.1292918153551188    8.6054312505224324   15.6492520892572085
  14.9050438828551179    1.2293473552224334   15.6492520892572085
  10.6464598603551188    8.6054312505224324   15.6492520892572085
