Copper                                  
   1.00000000000000     
     5.1425905228000000    0.0000000000000000    0.0000000000000000
     2.5712952614000000    4.4536140340000001    0.0000000000000000
     0.0000000000000000    0.0000000000000000   27.7901687622000004
   Cu   O 
    28     1
Selective dynamics
Direct
  0.0000000000000000  0.0000000000000000  0.2266399005668163   F   F   F
  0.0000000000583356  0.5000000000000000  0.2266399005668163   F   F   F
  0.4999999999222169  0.0000000000000000  0.2266399005668163   F   F   F
  0.4999999999805524  0.5000000000000000  0.2266399005668163   F   F   F
  0.3333333134210505  0.3333333134992529  0.3021865340890884   F   F   F
  0.3333333134793861  0.8333333134992529  0.3021865340890884   F   F   F
  0.8333333135377217  0.3333333134992529  0.3021865340890884   F   F   F
  0.8333333134016030  0.8333333134992529  0.3021865340890884   F   F   F
  0.1666666567666581  0.1666666566373607  0.3771631987767874   F F F
  0.1670322845666062  0.6664838056247198  0.3772975844096312   F F F
  0.6664838055839915  0.1670322845655048  0.3772975844096312   F F F
  0.6664838055421547  0.6664838056247198  0.3772975844096312   F F F
  0.0002599448755854  0.0002599450115335  0.4524234155355897   F F F
  0.0002599449699881  0.4994800969537939  0.4524234155355897   F F F
  0.4994800970066441  0.0002599450115335  0.4524234155355897   F F F
  0.4999999999805524  0.5000000000000000  0.4528874977330306   F F F
  0.3332119649771852  0.3332119647913783  0.5281390651129330   T   T   T
  0.3332119648837772  0.8335760106904706  0.5281390651129330   T   T   T
  0.8335760106894616  0.3332119647913783  0.5281390651129330   T   T   T
  0.8333333134016030  0.8333333134992529  0.5274193883011568   T   T   T
  0.1666666567666581  0.1666666566373607  0.6025333891675725   T   T   T
  0.1626186973675748  0.6686905767339858  0.6032046424456283   T   T   T
  0.6686905767846546  0.1626186974396380  0.6032046424456283   T   T   T
  0.6686905769073866  0.6686905767339858  0.6032046424456283   T   T   T
  0.9942929598394483  0.9942929598267217  0.6805724847932139   T   T   T
  0.9942929597294918  0.5114140803465523  0.6805724847932139   T   T   T
  0.5114140803338265  0.9942929598267217  0.6805724847932139   T   T   T
  0.4999999999805524  0.5000000000000000  0.6748087120477338   T   T   T
  0.1666666567666581  0.1666666566373607  0.7204388798870897   T   T   T
 
  0.00000000E+00  0.00000000E+00  0.00000000E+00
  0.00000000E+00  0.00000000E+00  0.00000000E+00
  0.00000000E+00  0.00000000E+00  0.00000000E+00
  0.00000000E+00  0.00000000E+00  0.00000000E+00
  0.00000000E+00  0.00000000E+00  0.00000000E+00
  0.00000000E+00  0.00000000E+00  0.00000000E+00
  0.00000000E+00  0.00000000E+00  0.00000000E+00
  0.00000000E+00  0.00000000E+00  0.00000000E+00
  0.00000000E+00  0.00000000E+00  0.00000000E+00
  0.00000000E+00  0.00000000E+00  0.00000000E+00
  0.00000000E+00  0.00000000E+00  0.00000000E+00
  0.00000000E+00  0.00000000E+00  0.00000000E+00
  0.00000000E+00  0.00000000E+00  0.00000000E+00
  0.00000000E+00  0.00000000E+00  0.00000000E+00
  0.00000000E+00  0.00000000E+00  0.00000000E+00
  0.00000000E+00  0.00000000E+00  0.00000000E+00
  0.00000000E+00  0.00000000E+00  0.00000000E+00
  0.00000000E+00  0.00000000E+00  0.00000000E+00
  0.00000000E+00  0.00000000E+00  0.00000000E+00
  0.00000000E+00  0.00000000E+00  0.00000000E+00
  0.00000000E+00  0.00000000E+00  0.00000000E+00
  0.00000000E+00  0.00000000E+00  0.00000000E+00
  0.00000000E+00  0.00000000E+00  0.00000000E+00
  0.00000000E+00  0.00000000E+00  0.00000000E+00
  0.00000000E+00  0.00000000E+00  0.00000000E+00
  0.00000000E+00  0.00000000E+00  0.00000000E+00
  0.00000000E+00  0.00000000E+00  0.00000000E+00
  0.00000000E+00  0.00000000E+00  0.00000000E+00
  0.00000000E+00  0.00000000E+00  0.00000000E+00
