Backward Displacement
1.00000000000000
  11.4605097771000004    0.0000000000000000    0.0000000000000000
  -5.7302548884000002    9.9250926071999999    0.0000000000000000
   0.0000000000000000    0.0000000000000000   46.7873382567999982
Si    As    Ga    H    H
63    36    27    9    9
Cartesian
   0.0000009111438477    2.2055750178090263    8.5776837646373583
  -1.9100840516561524    5.5139392202090267    8.5776837646373583
  -3.8201690144561526    8.8223034226090267    8.5776837646373583
   3.8201708368438476    2.2055750178090263    8.5776837646373583
   1.9100858740438478    5.5139392202090267    8.5776837646373583
   0.0000009112438477    8.8223034226090267    8.5776837646373583
   7.6403407625438478    2.2055750178090263    8.5776837646373583
   5.7302557997438477    5.5139392202090267    8.5776837646373583
   3.8201708369438476    8.8223034226090267    8.5776837646373583
   0.0000000000000000    0.0000000000000000    9.3574733594152057
  -1.9100849628000001    3.3083642024000000    9.3574733594152057
  -3.8201699256000001    6.6167284047999999    9.3574733594152057
   3.8201699257000001    0.0000000000000000    9.3574733594152057
   1.9100849629000001    3.3083642024000000    9.3574733594152057
   0.0000000001000000    6.6167284047999999    9.3574733594152057
   7.6403398514000003    0.0000000000000000    9.3574733594152057
   5.7302548886000002    3.3083642024000000    9.3574733594152057
   3.8201699258000001    6.6167284047999999    9.3574733594152057
   0.0000000000000000    0.0000000000000000   11.6968373714401981
  -1.9100849628000001    3.3083642024000000   11.6968373714401981
  -3.8201699256000001    6.6167284047999999   11.6968373714401981
   3.8201699257000001    0.0000000000000000   11.6968373714401981
   1.9100849629000001    3.3083642024000000   11.6968373714401981
   0.0000000001000000    6.6167284047999999   11.6968373714401981
   7.6403398514000003    0.0000000000000000   11.6968373714401981
   5.7302548886000002    3.3083642024000000   11.6968373714401981
   3.8201699258000001    6.6167284047999999   11.6968373714401981
   1.9100851328642219    1.1027871135549996   12.4766269662180456
   0.0000001700642218    4.4111513159549993   12.4766269662180456
  -1.9100847927357782    7.7195155183549993   12.4766269662180456
   5.7302550585642216    1.1027871135549996   12.4766269662180456
   3.8201700957642220    4.4111513159549993   12.4766269662180456
   1.9100851329642219    7.7195155183549993   12.4766269662180456
   9.5504249842642217    1.1027871135549996   12.4766269662180456
   7.6403400214642225    4.4111513159549993   12.4766269662180456
   5.7302550586642216    7.7195155183549993   12.4766269662180456
   1.9100851328642219    1.1027871135549996   14.8219191375192079
   0.0000001700642218    4.4111513159549993   14.8219191375192079
  -1.9100847927357782    7.7195155183549993   14.8219191375192079
   5.7302550585642216    1.1027871135549996   14.8219191375192079
   3.8201700957642220    4.4111513159549993   14.8219191375192079
   1.9100851329642219    7.7195155183549993   14.8219191375192079
   9.5504249842642217    1.1027871135549996   14.8219191375192079
   7.6403400214642225    4.4111513159549993   14.8219191375192079
   5.7302550586642216    7.7195155183549993   14.8219191375192079
  -0.0141412244798832    2.2055750178090263   15.5632410252346567
  -1.9100840516561524    5.5139392202090267   15.5773831608583873
  -3.8201690144561526    8.8223034226090267   15.5773831608583873
   3.8201708368438476    2.2055750178090263   15.5773831608583873
   1.9100858740438478    5.5139392202090267   15.5773831608583873
   0.0000009112438477    8.8223034226090267   15.5773831608583873
   7.6403407625438478    2.2055750178090263   15.5773831608583873
   5.7302557997438477    5.5139392202090267   15.5773831608583873
   3.8201708369438476    8.8223034226090267   15.5773831608583873
   0.0000009111438477    2.2055750178090263   17.8934505557824295
  -1.9100840516561524    5.5139392202090267   17.8934505557824295
  -3.8201690144561526    8.8223034226090267   17.8934505557824295
   3.8201708368438476    2.2055750178090263   17.8934505557824295
   1.9100858740438478    5.5139392202090267   17.8934505557824295
   0.0000009112438477    8.8223034226090267   17.8934505557824295
   7.6403407625438478    2.2055750178090263   17.8934505557824295
   5.7302557997438477    5.5139392202090267   17.8934505557824295
   3.8201708369438476    8.8223034226090267   17.8934505557824295
   0.0000000000000000    0.0000000000000000   18.7961629661722718
  -1.9100849628000001    3.3083642024000000   18.7961629661722718
  -3.8201699256000001    6.6167284047999999   18.7961629661722718
   3.8201699257000001    0.0000000000000000   18.7961629661722718
   1.9100849629000001    3.3083642024000000   18.7961629661722718
   0.0000000001000000    6.6167284047999999   18.7961629661722718
   7.6403398514000003    0.0000000000000000   18.7961629661722718
   5.7302548886000002    3.3083642024000000   18.7961629661722718
   3.8201699258000001    6.6167284047999999   18.7961629661722718
   1.9100851328642219    1.1027871135549996   22.1287934658868508
   0.0000001700642218    4.4111513159549993   22.1287934658868508
  -1.9100847927357782    7.7195155183549993   22.1287934658868508
   5.7302550585642216    1.1027871135549996   22.1287934658868508
   3.8201700957642220    4.4111513159549993   22.1287934658868508
   1.9100851329642219    7.7195155183549993   22.1287934658868508
   9.5504249842642217    1.1027871135549996   22.1287934658868508
   7.6403400214642225    4.4111513159549993   22.1287934658868508
   5.7302550586642216    7.7195155183549993   22.1287934658868508
   0.0000009111438477    2.2055750178090263   25.4304926362799328
  -1.9100840516561524    5.5139392202090267   25.4304926362799328
  -3.8201690144561526    8.8223034226090267   25.4304926362799328
   3.8201708368438476    2.2055750178090263   25.4304926362799328
   1.9100858740438478    5.5139392202090267   25.4304926362799328
   0.0000009112438477    8.8223034226090267   25.4304926362799328
   7.6403407625438478    2.2055750178090263   25.4304926362799328
   5.7302557997438477    5.5139392202090267   25.4304926362799328
   3.8201708369438476    8.8223034226090267   25.4304926362799328
   0.0000000000000000    0.0000000000000000   28.6889038113318335
  -1.9100849628000001    3.3083642024000000   28.6889038113318335
  -3.8201699256000001    6.6167284047999999   28.6889038113318335
   3.8201699257000001    0.0000000000000000   28.6889038113318335
   1.9100849629000001    3.3083642024000000   28.6889038113318335
   0.0000000001000000    6.6167284047999999   28.6889038113318335
   7.6403398514000003    0.0000000000000000   28.6889038113318335
   5.7302548886000002    3.3083642024000000   28.6889038113318335
   3.8201699258000001    6.6167284047999999   28.6889038113318335
   0.0000000000000000    0.0000000000000000   21.2565818109172930
  -1.9100849628000001    3.3083642024000000   21.2565818109172930
  -3.8201699256000001    6.6167284047999999   21.2565818109172930
   3.8201699257000001    0.0000000000000000   21.2565818109172930
   1.9100849629000001    3.3083642024000000   21.2565818109172930
   0.0000000001000000    6.6167284047999999   21.2565818109172930
   7.6403398514000003    0.0000000000000000   21.2565818109172930
   5.7302548886000002    3.3083642024000000   21.2565818109172930
   3.8201699258000001    6.6167284047999999   21.2565818109172930
   1.9100851328642219    1.1027871135549996   24.5528494741035317
   0.0000001700642218    4.4111513159549993   24.5528494741035317
  -1.9100847927357782    7.7195155183549993   24.5528494741035317
   5.7302550585642216    1.1027871135549996   24.5528494741035317
   3.8201700957642220    4.4111513159549993   24.5528494741035317
   1.9100851329642219    7.7195155183549993   24.5528494741035317
   9.5504249842642217    1.1027871135549996   24.5528494741035317
   7.6403400214642225    4.4111513159549993   24.5528494741035317
   5.7302550586642216    7.7195155183549993   24.5528494741035317
   0.0000009111438477    2.2055750178090263   27.8443564703650104
  -1.9100840516561524    5.5139392202090267   27.8443564703650104
  -3.8201690144561526    8.8223034226090267   27.8443564703650104
   3.8201708368438476    2.2055750178090263   27.8443564703650104
   1.9100858740438478    5.5139392202090267   27.8443564703650104
   0.0000009112438477    8.8223034226090267   27.8443564703650104
   7.6403407625438478    2.2055750178090263   27.8443564703650104
   5.7302557997438477    5.5139392202090267   27.8443564703650104
   3.8201708369438476    8.8223034226090267   27.8443564703650104
   0.0000000000000000    0.0000000000000000   30.2451196350523048
  -1.9100849628000001    3.3083642024000000   30.2451196350523048
  -3.8201699256000001    6.6167284047999999   30.2451196350523048
   3.8201699257000001    0.0000000000000000   30.2451196350523048
   1.9100849629000001    3.3083642024000000   30.2451196350523048
   0.0000000001000000    6.6167284047999999   30.2451196350523048
   7.6403398514000003    0.0000000000000000   30.2451196350523048
   5.7302548886000002    3.3083642024000000   30.2451196350523048
   3.8201699258000001    6.6167284047999999   30.2451196350523048
   0.0000009111438477    2.2055750178090263    7.0722666090210913
  -1.9100840516561524    5.5139392202090267    7.0722666090210913
  -3.8201690144561526    8.8223034226090267    7.0722666090210913
   3.8201708368438476    2.2055750178090263    7.0722666090210913
   1.9100858740438478    5.5139392202090267    7.0722666090210913
   0.0000009112438477    8.8223034226090267    7.0722666090210913
   7.6403407625438478    2.2055750178090263    7.0722666090210913
   5.7302557997438477    5.5139392202090267    7.0722666090210913
   3.8201708369438476    8.8223034226090267    7.0722666090210913
