New structure                           
   1.00000000000000     
     3.8201699257000001    0.0000000000000000    0.0000000000000000
    -1.9100849628000001    3.3083642024000000    0.0000000000000000
     0.0000000000000000    0.0000000000000000   46.7873382567999982
   Si   As   Ga   H    H 
     7     3     4     1     1
Selective dynamics
Direct
  0.3333334029999975  0.6666663290000017  0.1833334419999986   F   F   F
  0.0000000000000000  0.0000000000000000  0.2000001219999987   F   F   F
  0.0000000000000000  0.0000000000000000  0.2500000599999979   F   F   F
  0.6666665670000000  0.3333330450000034  0.2666667399999980   F F F
  0.6666665670000000  0.3333330450000034  0.3166463244233650   T   T   T
  0.3333334029999975  0.6666663290000017  0.3336804523775075   T   T   T
  0.3333334029999975  0.6666663290000017  0.3832545029855806   T   T   T
  0.0000000000000000 -0.0000000000000000  0.4537359493492752   T   T   T
  0.6666665670000000  0.3333330450000034  0.5247419547357086   F F F
  0.3333334029999975  0.6666663290000017  0.5952485558219278   F F F
 -0.0000000000000000  0.0000000000000000  0.4021406905488655   T   T   T
  0.6666665670000000  0.3333330450000034  0.4729967800437042   T   T   T
  0.3333334029999975  0.6666663290000017  0.5437328119233430   F F F
  0.0000000000000000  0.0000000000000000  0.6135577707309090   F F F
  0.0000000000000000 -0.0000000000000000  0.6468121824370944   F F F
  0.3333334029999975  0.6666663290000017  0.1511662659740617   F F F
 
  0.00000000E+00  0.00000000E+00  0.00000000E+00
  0.00000000E+00  0.00000000E+00  0.00000000E+00
  0.00000000E+00  0.00000000E+00  0.00000000E+00
  0.00000000E+00  0.00000000E+00  0.00000000E+00
  0.00000000E+00  0.00000000E+00  0.00000000E+00
  0.00000000E+00  0.00000000E+00  0.00000000E+00
  0.00000000E+00  0.00000000E+00  0.00000000E+00
  0.00000000E+00  0.00000000E+00  0.00000000E+00
  0.00000000E+00  0.00000000E+00  0.00000000E+00
  0.00000000E+00  0.00000000E+00  0.00000000E+00
  0.00000000E+00  0.00000000E+00  0.00000000E+00
  0.00000000E+00  0.00000000E+00  0.00000000E+00
  0.00000000E+00  0.00000000E+00  0.00000000E+00
  0.00000000E+00  0.00000000E+00  0.00000000E+00
  0.00000000E+00  0.00000000E+00  0.00000000E+00
  0.00000000E+00  0.00000000E+00  0.00000000E+00
