Displacement Backward
1.00000000000000
  10.2851810455999999    0.0000000000000000    0.0000000000000000
   5.1425905228000000    8.9072280680000002    0.0000000000000000
   0.0000000000000000    0.0000000000000000   27.7901687622000004
Cu    O
112    4
Cartesian
   0.0000000000000000    0.0000000000000000    6.2983610850000522
   2.5712952614000000    4.4536140340000001    6.2983610850000522
   5.1425905228000000    0.0000000000000000    6.2983610850000522
   7.7138857842000004    4.4536140340000001    6.2983610850000522
   1.2856476309999960    2.2268070170000001    6.2983610850000522
   3.8569428923999958    6.6804210509999997    6.2983610850000522
   6.4282381537999962    2.2268070170000001    6.2983610850000522
   8.9995334151999966    6.6804210509999997    6.2983610850000522
   2.5712952609999933    0.0000000000000000    6.2983610850000522
   5.1425905223999937    4.4536140340000001    6.2983610850000522
   7.7138857837999932    0.0000000000000000    6.2983610850000522
  10.2851810451999945    4.4536140340000001    6.2983610850000522
   3.8569428919999886    2.2268070170000001    6.2983610850000522
   6.4282381533999882    6.6804210509999997    6.2983610850000522
   8.9995334147999877    2.2268070170000001    6.2983610850000522
  11.5708286761999890    6.6804210509999997    6.2983610850000522
   2.5712951080000059    1.4845379229999942    8.3978147800000702
   5.1425903694000059    5.9381519569999943    8.3978147800000702
   7.7138856308000054    1.4845379229999942    8.3978147800000702
  10.2851808922000068    5.9381519569999943    8.3978147800000702
   3.8569427390000017    3.7113449399999943    8.3978147800000702
   6.4282380004000022    8.1649589739999939    8.3978147800000702
   8.9995332618000017    3.7113449399999943    8.3978147800000702
  11.5708285232000030    8.1649589739999939    8.3978147800000702
   5.1425903699999980    1.4845379229999942    8.3978147800000702
   7.7138856313999984    5.9381519569999943    8.3978147800000702
  10.2851808927999979    1.4845379229999942    8.3978147800000702
  12.8564761541999992    5.9381519569999943    8.3978147800000702
   6.4282379999999950    3.7113449399999943    8.3978147800000702
   8.9995332613999945    8.1649589739999939    8.3978147800000702
  11.5708285227999959    3.7113449399999943    8.3978147800000702
  14.1421237841999954    8.1649589739999939    8.3978147800000702
   1.2832463910461711    0.7408826494086498   10.4841048279904783
   3.8545416524461711    5.1944966834086497   10.4841048279904783
   6.4258369138461706    0.7408826494086498   10.4841048279904783
   8.9971321752461719    5.1944966834086497   10.4841048279904783
   2.5712951850000012    2.9718486031826838   10.4841048279904783
   5.1425904464000016    7.4254626371826840   10.4841048279904783
   7.7138857078000012    2.9718486031826838   10.4841048279904783
  10.2851809692000025    7.4254626371826840   10.4841048279904783
   3.8593439789537944    0.7408826494086498   10.4841048279904783
   6.4306392403537949    5.1944966834086497   10.4841048279904783
   9.0019345017537944    0.7408826494086498   10.4841048279904783
  11.5732297631537939    5.1944966834086497   10.4841048279904783
   5.1425902160000128    2.9690758459999884   10.4844283906729459
   7.7138854774000123    7.4226898799999885   10.4844283906729459
  10.2851807388000118    2.9690758459999884   10.4844283906729459
  12.8564760002000131    7.4226898799999885   10.4844283906729459
   0.0000000000000000    0.0000000000000000   12.5910220259641665
   2.5712952614000000    4.4536140340000001   12.5910220259641665
   5.1425905228000000    0.0000000000000000   12.5910220259641665
   7.7138857842000004    4.4536140340000001   12.5910220259641665
   1.2863304234179984    2.2264127504366176   12.5719494111218921
   3.8576256848179984    6.6800267844366177   12.5719494111218921
   6.4289209462179979    2.2264127504366176   12.5719494111218921
   9.0002162076179992    6.6800267844366177   12.5719494111218921
   2.5712952120000265    0.0007884491268190   12.5719494111218921
   5.1425904734000270    4.4544024831268194   12.5719494111218921
   7.7138857348000265    0.0007884491268190   12.5719494111218921
  10.2851809962000260    4.4544024831268194   12.5719494111218921
   3.8562600015820525    2.2264127504366176   12.5719494111218921
   6.4275552629820520    6.6800267844366177   12.5719494111218921
   8.9988505243820534    2.2264127504366176   12.5719494111218921
  11.5701457857820529    6.6800267844366177   12.5719494111218921
   2.5712951080000059    1.4845379229999942   14.6444045081965655
   5.1425903694000059    5.9381519569999943   14.6644045081965650
   7.7138856308000054    1.4845379229999942   14.6644045081965650
  10.2851808922000068    5.9381519569999943   14.6644045081965650
   3.8664702124286547    3.7058444279372109   14.6554794243430138
   6.4377654738286552    8.1594584619372110   14.6754794243430133
   9.0090607352286547    3.7058444279372109   14.6754794243430133
  11.5803559966286542    8.1594584619372110   14.6754794243430133
   5.1425905229999422    1.4955392131254803   14.6554794243430138
   7.7138857843999418    5.9491532471254800   14.6754794243430133
  10.2851810457999413    1.4955392131254803   14.6754794243430133
  12.8564763071999426    5.9491532471254800   14.6754794243430133
   6.4187108335711933    3.7058444279372109   14.6554794243430138
   8.9900060949711929    8.1594584619372110   14.6754794243430133
  11.5613013563711924    3.7058444279372109   14.6754794243430133
  14.1325966177711937    8.1594584619372110   14.6754794243430133
   1.2941708576866344    0.7271898930287418   16.7374704811724868
   3.8654661190866344    5.2008039270287423   16.7374704811724868
   6.4367613804866348    0.7471898930287418   16.7374704811724868
   9.0080566418866344    5.2008039270287423   16.7374704811724868
   2.5712951079999913    2.9592339819424973   16.7374704811724868
   5.1425903693999917    7.4128480159424974   16.7374704811724868
   7.7138856307999912    2.9592339819424973   16.7374704811724868
  10.2851808921999925    7.4128480159424974   16.7374704811724868
   3.8484193583133486    0.7471898930287418   16.7374704811724868
   6.4197146197133481    5.2008039270287423   16.7374704811724868
   8.9910098811133494    0.7471898930287418   16.7374704811724868
  11.5623051425133490    5.2008039270287423   16.7374704811724868
   5.1425902160000128    2.9690758459999884   16.8328494067076058
   7.7138854774000123    7.4226898799999885   16.8328494067076058
  10.2851807388000118    2.9690758459999884   16.8328494067076058
  12.8564760002000131    7.4226898799999885   16.8328494067076058
   0.0000000000000000    0.0000000000000000   18.7211977161248413
   2.5712952614000000    4.4536140340000001   18.7211977161248413
   5.1425905228000000    0.0000000000000000   18.7211977161248413
   7.7138857842000004    4.4536140340000001   18.7211977161248413
   6.3810116645697308    2.2540734198926580   18.9140790934969161
   8.9523069259697312    6.7076874538926585   18.9140790934969161
  11.5236021873697307    2.2540734198926580   18.9140790934969161
  14.0948974487697321    6.7076874538926585   18.9140790934969161
   5.1425906760000331    4.3990814932146796   18.9140790934969161
   7.7138859374000326    8.8526955272146797   18.9140790934969161
  10.2851811988000321    4.3990814932146796   18.9140790934969161
  12.8564764602000334    8.8526955272146797   18.9140790934969161
   3.9041696874302616    2.2540734198926580   18.9140790934969161
   6.4754649488302611    6.7076874538926585   18.9140790934969161
   9.0467602102302607    2.2540734198926580   18.9140790934969161
  11.6180554716302620    6.7076874538926585   18.9140790934969161
   2.5712951080000059    1.4845379229999942   20.0035309733694184
   5.1425903694000059    5.9381519569999943   20.0035309733694184
   7.7138856308000054    1.4845379229999942   20.0035309733694184
  10.2851808922000068    5.9381519569999943   20.0035309733694184
