Forward Displacement
1.00000000000000
   8.5171680450000000    0.0000000000000000    0.0000000000000000
  -4.2585840225000000    7.3760838952999999    0.0000000000000000
   0.0000000000000000    0.0000000000000000   31.2940731049000007
In    As    H
19    20    4
Cartesian
   0.0000000000000000    0.0000000000000000    0.0000000000000000
   2.1292920112500000    3.6880419476499999    0.0000000000000000
   4.2585840225000000    0.0000000000000000    0.0000000000000000
  -2.1292920112500000    3.6880419476499999    0.0000000000000000
  -0.0000000042585993    4.9173894135137273    3.4771192616948321
   6.3878758378551188    1.2293473552224334    3.4771192616948321
   4.2585837627263388    4.9173894135137273    3.4771192616948321
   2.1292920708701812    1.2293473552224334    3.4771192616948321
   4.2585841545161305    2.4586947030688080    6.9800082491148254
  -2.1297811697527118    6.1470187001665009    6.9519029419614169
  -0.0000005067714954    2.4581303828908250    6.9519029419614169
   2.1297811782699956    6.1470187001665009    6.9519029419614169
   0.0000000000000000    0.0000000000000000   10.4238014305035200
   2.1129335765640835    3.6974864943194716   10.4915170550441506
   0.0000000000000009    7.3571948019610538   10.4915170550441506
  -2.1129335765640791    3.6974864943194716   10.4915170550441506
   6.2147200840693948    1.3293188762827435   13.1794448747295281
   4.2585837627263023    4.7174463713931596   13.1794448747295281
   2.3024478246558395    1.3293188762827435   13.1794448747295281
   0.0000000000000000    0.0000000000000000    2.6078395088592763
  -2.1292920112500000    3.6880419476499999    2.6078406667399654
   4.2585840225000000    0.0000000000000000    2.6078406667399654
   2.1292920112500000    3.6880419476499999    2.6078406667399654
  -0.0000000042585993    4.9173894135137273    6.0849587705538859
   2.1292920708701812    1.2293473552224334    6.0849587705538859
   4.2585837627263388    4.9173894135137273    6.0849587705538859
   6.3878758378551188    1.2293473552224334    6.0849587705538859
   4.2585841545161305    2.4586947030688080    9.5980083767353896
   2.1241625932062562    6.1437748085675272    9.5567481477147034
  -0.0000005067715261    2.4646181660888407    9.5567481477147034
  -2.1241625846890564    6.1437748085675272    9.5567481477147034
   0.0000000000000000    0.0000000000000000   13.0827992986894799
  -1.8132730751059296    3.8846377011262492   13.1467811723019015
   0.0000000000000009    7.0111766595949563   13.1326390366781709
   1.8132730751059198    3.8704955655025182   13.1326390366781709
  -0.0000005067715256    2.4586949243513434   30.4247928826534206
  -2.1292922625064632    6.1467364294362730   30.4247928826534206
   2.1292922710236617    6.1467364294362730   30.4247928826534206
   4.2585841545161305    2.4586947030688080   30.4247928826534206
   4.2585841545161305    2.4586947030688080   28.8662782181445650
  -2.1292922625064632    6.1467364294362730   28.8662782181445650
   2.1292922710236617    6.1467364294362730   28.8662782181445650
  -0.0000005067715256    2.4586949243513434   28.8662782181445650
