Backward Displacement
1.00000000000000
  10.2851810455999999    0.0000000000000000    0.0000000000000000
   5.1425905228000000    8.9072280680000002    0.0000000000000000
   0.0000000000000000    0.0000000000000000   27.7901687622000004
Cu    O
112    4
Cartesian
   0.0000000000000000    0.0000000000000000    6.2983610850000522
   2.5712952614000000    4.4536140340000001    6.2983610850000522
   5.1425905228000000    0.0000000000000000    6.2983610850000522
   7.7138857842000004    4.4536140340000001    6.2983610850000522
   1.2856476309999960    2.2268070170000001    6.2983610850000522
   3.8569428923999958    6.6804210509999997    6.2983610850000522
   6.4282381537999962    2.2268070170000001    6.2983610850000522
   8.9995334151999966    6.6804210509999997    6.2983610850000522
   2.5712952609999933    0.0000000000000000    6.2983610850000522
   5.1425905223999937    4.4536140340000001    6.2983610850000522
   7.7138857837999932    0.0000000000000000    6.2983610850000522
  10.2851810451999945    4.4536140340000001    6.2983610850000522
   3.8569428919999886    2.2268070170000001    6.2983610850000522
   6.4282381533999882    6.6804210509999997    6.2983610850000522
   8.9995334147999877    2.2268070170000001    6.2983610850000522
  11.5708286761999890    6.6804210509999997    6.2983610850000522
   2.5712951080000059    1.4845379229999942    8.3978147800000702
   5.1425903694000059    5.9381519569999943    8.3978147800000702
   7.7138856308000054    1.4845379229999942    8.3978147800000702
  10.2851808922000068    5.9381519569999943    8.3978147800000702
   3.8569427390000017    3.7113449399999943    8.3978147800000702
   6.4282380004000022    8.1649589739999939    8.3978147800000702
   8.9995332618000017    3.7113449399999943    8.3978147800000702
  11.5708285232000030    8.1649589739999939    8.3978147800000702
   5.1425903699999980    1.4845379229999942    8.3978147800000702
   7.7138856313999984    5.9381519569999943    8.3978147800000702
  10.2851808927999979    1.4845379229999942    8.3978147800000702
  12.8564761541999992    5.9381519569999943    8.3978147800000702
   6.4282379999999950    3.7113449399999943    8.3978147800000702
   8.9995332613999945    8.1649589739999939    8.3978147800000702
  11.5708285227999959    3.7113449399999943    8.3978147800000702
  14.1421237841999954    8.1649589739999939    8.3978147800000702
   1.2856475540000027    0.7422689610000088   10.4814289448981057
   3.8569428154000027    5.1958829950000087   10.4814289448981057
   6.4282380768000031    0.7422689610000088   10.4814289448981057
   8.9995333382000027    5.1958829950000087   10.4814289448981057
   2.5727052948165423    2.9682616301639801   10.4851635443140498
   5.1440005562165423    7.4218756641639807   10.4851635443140498
   7.7152958176165427    2.9682616301639801   10.4851635443140498
  10.2865910790165422    7.4218756641639807   10.4851635443140498
   3.8569426240000109    0.7438973266720138   10.4851635443140498
   6.4282378854000104    5.1975113606720136   10.4851635443140498
   8.9995331468000117    0.7438973266720138   10.4851635443140498
  11.5708284082000112    5.1975113606720136   10.4851635443140498
   5.1411799531834435    2.9682616301639801   10.4851635443140498
   7.7124752145834439    7.4218756641639807   10.4851635443140498
  10.2837704759834434    2.9682616301639801   10.4851635443140498
  12.8550657373834447    7.4218756641639807   10.4851635443140498
   0.0020051854300166    0.0011576947514339   12.5729230697049754
   2.5733004468300167    4.4547717287514343   12.5729230697049754
   5.1445957082300167    0.0011576947514339   12.5729230697049754
   7.7158909696300171    4.4547717287514343   12.5729230697049754
   1.2856475970000132    2.2244915694970975   12.5729230697049754
   3.8569428584000134    6.6781056034970980   12.5729230697049754
   6.4282381198000129    2.2244915694970975   12.5729230697049754
   8.9995333812000133    6.6781056034970980   12.5729230697049754
   2.5692900085699732    0.0011576947514339   12.5729230697049754
   5.1405852699699732    4.4547717287514343   12.5729230697049754
   7.7118805313699728    0.0011576947514339   12.5729230697049754
  10.2831757927699741    4.4547717287514343   12.5729230697049754
   3.8569428919999886    2.2268070170000001   12.5858199922913911
   6.4282381533999882    6.6804210509999997   12.5858199922913911
   8.9995334147999877    2.2268070170000001   12.5858199922913911
  11.5708286761999890    6.6804210509999997   12.5858199922913911
   2.5703590392850928    1.4839974826915965   14.6770737493989412
   5.1416543006850928    5.9376115166915966   14.6770737493989412
   7.7129495620850932    1.4839974826915965   14.6770737493989412
  10.2842448234850927    5.9376115166915966   14.6770737493989412
   3.8569427390000017    3.7124258196168141   14.6770737493989412
   6.4282380004000022    8.1660398536168142   14.6770737493989412
   8.9995332618000017    3.7124258196168141   14.6770737493989412
  11.5708285232000030    8.1660398536168142   14.6770737493989412
   5.1435264387149120    1.4839974826915965   14.6770737493989412
   7.7148217001149124    5.9376115166915966   14.6770737493989412
  10.2861169615149119    1.4839974826915965   14.6770737493989412
  12.8574122229149133    5.9376115166915966   14.6770737493989412
   6.4082379999999954    3.7113449399999943   14.6570738093454391
   8.9995332613999945    8.1649589739999939   14.6570738093454391
  11.5708285227999959    3.7113449399999943   14.6570738093454391
  14.1421237841999954    8.1649589739999939   14.6570738093454391
   1.2856475540000027    0.7422689610000088   16.7445045698271677
   3.8569428154000027    5.1958829950000087   16.7445045698271677
   6.4282380768000031    0.7422689610000088   16.7445045698271677
   8.9995333382000027    5.1958829950000087   16.7445045698271677
   2.5556822832115023    2.9780897369460333   16.7631588117065213
   5.1269775446115027    7.4317037709460330   16.7631588117065213
   7.6982728060115022    2.9780897369460333   16.7631588117065213
  10.2695680674115017    7.4317037709460330   16.7631588117065213
   3.8569425090000120    0.7242409131079717   16.7631588117065213
   6.4282377704000115    5.1778549471079716   16.7631588117065213
   8.9995330318000128    0.7242409131079717   16.7631588117065213
  11.5708282932000124    5.1778549471079716   16.7631588117065213
   5.1582027347885218    2.9780897369460333   16.7631588117065213
   7.7294979961885222    7.4317037709460330   16.7631588117065213
  10.3007932575885217    2.9780897369460333   16.7631588117065213
  12.8720885189885230    7.4317037709460330   16.7631588117065213
   7.6698623282029379    4.4281970797916861   18.9132242073132062
  10.2411575896029383    8.8818111137916862   18.9132242073132062
  12.8124528510029378    4.4281970797916861   18.9132242073132062
  15.3837481124029374    8.8818111137916862   18.9132242073132062
   6.4282381529999757    2.2776409254166090   18.9132242073132062
   8.9995334143999752    6.7312549594166091   18.9132242073132062
  11.5708286757999765    2.2776409254166090   18.9132242073132062
  14.1421239371999761    6.7312549594166091   18.9132242073132062
   5.1866139787970447    4.4281970797916861   18.9132242073132062
   7.7579092401970442    8.8818111137916862   18.9132242073132062
  10.3292045015970437    4.4281970797916861   18.9132242073132062
  12.9004997629970450    8.8818111137916862   18.9132242073132062
   3.8569428919999886    2.2268070170000001   18.7530479900093496
   6.4282381533999882    6.6804210509999997   18.7530479900093496
   8.9995334147999877    2.2268070170000001   18.7530479900093496
  11.5708286761999890    6.6804210509999997   18.7530479900093496
   1.2856475540000027    0.7422689610000088   20.0211180549125558
   3.8569428154000027    5.1958829950000087   20.0211180549125558
   6.4282380768000031    0.7422689610000088   20.0211180549125558
   8.9995333382000027    5.1958829950000087   20.0211180549125558
